c Synthetic 21-vertex path diameter fixture, goal depth=19 (sol/sol_reply_85_math12.md P85-6 point 3, Ruling 214 step 4).
c Fixed graph: path 1-2-...-21 (edge (i,i+1) for i=1..20). True diameter from vertex 1 is 20. Expected verdict: UNSAT.
c X/D/B variable ids (1..672) are declared but unused (legal DIMACS) -- reused unchanged from encode_tail8_n21.py's numbering scheme.
c Generated by search/sat/encode_diam20_path21.py -- do not hand-edit.
p cnf 9723 34692
673 0
-674 0
-675 0
-676 0
-677 0
-678 0
-679 0
-680 0
-681 0
-682 0
-683 0
-684 0
-685 0
-686 0
-687 0
-688 0
-689 0
-690 0
-691 0
-692 0
693 0
-694 0
-695 0
-696 0
-697 0
-698 0
-699 0
-700 0
-701 0
-702 0
-703 0
-704 0
-705 0
-706 0
-707 0
-708 0
-709 0
-710 0
-711 0
712 0
-713 0
-714 0
-715 0
-716 0
-717 0
-718 0
-719 0
-720 0
-721 0
-722 0
-723 0
-724 0
-725 0
-726 0
-727 0
-728 0
-729 0
730 0
-731 0
-732 0
-733 0
-734 0
-735 0
-736 0
-737 0
-738 0
-739 0
-740 0
-741 0
-742 0
-743 0
-744 0
-745 0
-746 0
747 0
-748 0
-749 0
-750 0
-751 0
-752 0
-753 0
-754 0
-755 0
-756 0
-757 0
-758 0
-759 0
-760 0
-761 0
-762 0
763 0
-764 0
-765 0
-766 0
-767 0
-768 0
-769 0
-770 0
-771 0
-772 0
-773 0
-774 0
-775 0
-776 0
-777 0
778 0
-779 0
-780 0
-781 0
-782 0
-783 0
-784 0
-785 0
-786 0
-787 0
-788 0
-789 0
-790 0
-791 0
792 0
-793 0
-794 0
-795 0
-796 0
-797 0
-798 0
-799 0
-800 0
-801 0
-802 0
-803 0
-804 0
805 0
-806 0
-807 0
-808 0
-809 0
-810 0
-811 0
-812 0
-813 0
-814 0
-815 0
-816 0
817 0
-818 0
-819 0
-820 0
-821 0
-822 0
-823 0
-824 0
-825 0
-826 0
-827 0
828 0
-829 0
-830 0
-831 0
-832 0
-833 0
-834 0
-835 0
-836 0
-837 0
838 0
-839 0
-840 0
-841 0
-842 0
-843 0
-844 0
-845 0
-846 0
847 0
-848 0
-849 0
-850 0
-851 0
-852 0
-853 0
-854 0
855 0
-856 0
-857 0
-858 0
-859 0
-860 0
-861 0
862 0
-863 0
-864 0
-865 0
-866 0
-867 0
868 0
-869 0
-870 0
-871 0
-872 0
873 0
-874 0
-875 0
-876 0
877 0
-878 0
-879 0
880 0
-881 0
882 0
9283 0
-9284 0
-9285 0
-9286 0
-9287 0
-9288 0
-9289 0
-9290 0
-9291 0
-9292 0
-9293 0
-9294 0
-9295 0
-9296 0
-9297 0
-9298 0
-9299 0
-9300 0
-9301 0
-9302 0
-9303 0
-883 9283 0
-883 673 0
-9283 -673 883 0
-884 9283 0
-884 674 0
-9283 -674 884 0
-885 9283 0
-885 675 0
-9283 -675 885 0
-886 9283 0
-886 676 0
-9283 -676 886 0
-887 9283 0
-887 677 0
-9283 -677 887 0
-888 9283 0
-888 678 0
-9283 -678 888 0
-889 9283 0
-889 679 0
-9283 -679 889 0
-890 9283 0
-890 680 0
-9283 -680 890 0
-891 9283 0
-891 681 0
-9283 -681 891 0
-892 9283 0
-892 682 0
-9283 -682 892 0
-893 9283 0
-893 683 0
-9283 -683 893 0
-894 9283 0
-894 684 0
-9283 -684 894 0
-895 9283 0
-895 685 0
-9283 -685 895 0
-896 9283 0
-896 686 0
-9283 -686 896 0
-897 9283 0
-897 687 0
-9283 -687 897 0
-898 9283 0
-898 688 0
-9283 -688 898 0
-899 9283 0
-899 689 0
-9283 -689 899 0
-900 9283 0
-900 690 0
-9283 -690 900 0
-901 9283 0
-901 691 0
-9283 -691 901 0
-902 9283 0
-902 692 0
-9283 -692 902 0
-903 9284 0
-903 673 0
-9284 -673 903 0
-904 9284 0
-904 693 0
-9284 -693 904 0
-905 9284 0
-905 694 0
-9284 -694 905 0
-906 9284 0
-906 695 0
-9284 -695 906 0
-907 9284 0
-907 696 0
-9284 -696 907 0
-908 9284 0
-908 697 0
-9284 -697 908 0
-909 9284 0
-909 698 0
-9284 -698 909 0
-910 9284 0
-910 699 0
-9284 -699 910 0
-911 9284 0
-911 700 0
-9284 -700 911 0
-912 9284 0
-912 701 0
-9284 -701 912 0
-913 9284 0
-913 702 0
-9284 -702 913 0
-914 9284 0
-914 703 0
-9284 -703 914 0
-915 9284 0
-915 704 0
-9284 -704 915 0
-916 9284 0
-916 705 0
-9284 -705 916 0
-917 9284 0
-917 706 0
-9284 -706 917 0
-918 9284 0
-918 707 0
-9284 -707 918 0
-919 9284 0
-919 708 0
-9284 -708 919 0
-920 9284 0
-920 709 0
-9284 -709 920 0
-921 9284 0
-921 710 0
-9284 -710 921 0
-922 9284 0
-922 711 0
-9284 -711 922 0
-923 9285 0
-923 674 0
-9285 -674 923 0
-924 9285 0
-924 693 0
-9285 -693 924 0
-925 9285 0
-925 712 0
-9285 -712 925 0
-926 9285 0
-926 713 0
-9285 -713 926 0
-927 9285 0
-927 714 0
-9285 -714 927 0
-928 9285 0
-928 715 0
-9285 -715 928 0
-929 9285 0
-929 716 0
-9285 -716 929 0
-930 9285 0
-930 717 0
-9285 -717 930 0
-931 9285 0
-931 718 0
-9285 -718 931 0
-932 9285 0
-932 719 0
-9285 -719 932 0
-933 9285 0
-933 720 0
-9285 -720 933 0
-934 9285 0
-934 721 0
-9285 -721 934 0
-935 9285 0
-935 722 0
-9285 -722 935 0
-936 9285 0
-936 723 0
-9285 -723 936 0
-937 9285 0
-937 724 0
-9285 -724 937 0
-938 9285 0
-938 725 0
-9285 -725 938 0
-939 9285 0
-939 726 0
-9285 -726 939 0
-940 9285 0
-940 727 0
-9285 -727 940 0
-941 9285 0
-941 728 0
-9285 -728 941 0
-942 9285 0
-942 729 0
-9285 -729 942 0
-943 9286 0
-943 675 0
-9286 -675 943 0
-944 9286 0
-944 694 0
-9286 -694 944 0
-945 9286 0
-945 712 0
-9286 -712 945 0
-946 9286 0
-946 730 0
-9286 -730 946 0
-947 9286 0
-947 731 0
-9286 -731 947 0
-948 9286 0
-948 732 0
-9286 -732 948 0
-949 9286 0
-949 733 0
-9286 -733 949 0
-950 9286 0
-950 734 0
-9286 -734 950 0
-951 9286 0
-951 735 0
-9286 -735 951 0
-952 9286 0
-952 736 0
-9286 -736 952 0
-953 9286 0
-953 737 0
-9286 -737 953 0
-954 9286 0
-954 738 0
-9286 -738 954 0
-955 9286 0
-955 739 0
-9286 -739 955 0
-956 9286 0
-956 740 0
-9286 -740 956 0
-957 9286 0
-957 741 0
-9286 -741 957 0
-958 9286 0
-958 742 0
-9286 -742 958 0
-959 9286 0
-959 743 0
-9286 -743 959 0
-960 9286 0
-960 744 0
-9286 -744 960 0
-961 9286 0
-961 745 0
-9286 -745 961 0
-962 9286 0
-962 746 0
-9286 -746 962 0
-963 9287 0
-963 676 0
-9287 -676 963 0
-964 9287 0
-964 695 0
-9287 -695 964 0
-965 9287 0
-965 713 0
-9287 -713 965 0
-966 9287 0
-966 730 0
-9287 -730 966 0
-967 9287 0
-967 747 0
-9287 -747 967 0
-968 9287 0
-968 748 0
-9287 -748 968 0
-969 9287 0
-969 749 0
-9287 -749 969 0
-970 9287 0
-970 750 0
-9287 -750 970 0
-971 9287 0
-971 751 0
-9287 -751 971 0
-972 9287 0
-972 752 0
-9287 -752 972 0
-973 9287 0
-973 753 0
-9287 -753 973 0
-974 9287 0
-974 754 0
-9287 -754 974 0
-975 9287 0
-975 755 0
-9287 -755 975 0
-976 9287 0
-976 756 0
-9287 -756 976 0
-977 9287 0
-977 757 0
-9287 -757 977 0
-978 9287 0
-978 758 0
-9287 -758 978 0
-979 9287 0
-979 759 0
-9287 -759 979 0
-980 9287 0
-980 760 0
-9287 -760 980 0
-981 9287 0
-981 761 0
-9287 -761 981 0
-982 9287 0
-982 762 0
-9287 -762 982 0
-983 9288 0
-983 677 0
-9288 -677 983 0
-984 9288 0
-984 696 0
-9288 -696 984 0
-985 9288 0
-985 714 0
-9288 -714 985 0
-986 9288 0
-986 731 0
-9288 -731 986 0
-987 9288 0
-987 747 0
-9288 -747 987 0
-988 9288 0
-988 763 0
-9288 -763 988 0
-989 9288 0
-989 764 0
-9288 -764 989 0
-990 9288 0
-990 765 0
-9288 -765 990 0
-991 9288 0
-991 766 0
-9288 -766 991 0
-992 9288 0
-992 767 0
-9288 -767 992 0
-993 9288 0
-993 768 0
-9288 -768 993 0
-994 9288 0
-994 769 0
-9288 -769 994 0
-995 9288 0
-995 770 0
-9288 -770 995 0
-996 9288 0
-996 771 0
-9288 -771 996 0
-997 9288 0
-997 772 0
-9288 -772 997 0
-998 9288 0
-998 773 0
-9288 -773 998 0
-999 9288 0
-999 774 0
-9288 -774 999 0
-1000 9288 0
-1000 775 0
-9288 -775 1000 0
-1001 9288 0
-1001 776 0
-9288 -776 1001 0
-1002 9288 0
-1002 777 0
-9288 -777 1002 0
-1003 9289 0
-1003 678 0
-9289 -678 1003 0
-1004 9289 0
-1004 697 0
-9289 -697 1004 0
-1005 9289 0
-1005 715 0
-9289 -715 1005 0
-1006 9289 0
-1006 732 0
-9289 -732 1006 0
-1007 9289 0
-1007 748 0
-9289 -748 1007 0
-1008 9289 0
-1008 763 0
-9289 -763 1008 0
-1009 9289 0
-1009 778 0
-9289 -778 1009 0
-1010 9289 0
-1010 779 0
-9289 -779 1010 0
-1011 9289 0
-1011 780 0
-9289 -780 1011 0
-1012 9289 0
-1012 781 0
-9289 -781 1012 0
-1013 9289 0
-1013 782 0
-9289 -782 1013 0
-1014 9289 0
-1014 783 0
-9289 -783 1014 0
-1015 9289 0
-1015 784 0
-9289 -784 1015 0
-1016 9289 0
-1016 785 0
-9289 -785 1016 0
-1017 9289 0
-1017 786 0
-9289 -786 1017 0
-1018 9289 0
-1018 787 0
-9289 -787 1018 0
-1019 9289 0
-1019 788 0
-9289 -788 1019 0
-1020 9289 0
-1020 789 0
-9289 -789 1020 0
-1021 9289 0
-1021 790 0
-9289 -790 1021 0
-1022 9289 0
-1022 791 0
-9289 -791 1022 0
-1023 9290 0
-1023 679 0
-9290 -679 1023 0
-1024 9290 0
-1024 698 0
-9290 -698 1024 0
-1025 9290 0
-1025 716 0
-9290 -716 1025 0
-1026 9290 0
-1026 733 0
-9290 -733 1026 0
-1027 9290 0
-1027 749 0
-9290 -749 1027 0
-1028 9290 0
-1028 764 0
-9290 -764 1028 0
-1029 9290 0
-1029 778 0
-9290 -778 1029 0
-1030 9290 0
-1030 792 0
-9290 -792 1030 0
-1031 9290 0
-1031 793 0
-9290 -793 1031 0
-1032 9290 0
-1032 794 0
-9290 -794 1032 0
-1033 9290 0
-1033 795 0
-9290 -795 1033 0
-1034 9290 0
-1034 796 0
-9290 -796 1034 0
-1035 9290 0
-1035 797 0
-9290 -797 1035 0
-1036 9290 0
-1036 798 0
-9290 -798 1036 0
-1037 9290 0
-1037 799 0
-9290 -799 1037 0
-1038 9290 0
-1038 800 0
-9290 -800 1038 0
-1039 9290 0
-1039 801 0
-9290 -801 1039 0
-1040 9290 0
-1040 802 0
-9290 -802 1040 0
-1041 9290 0
-1041 803 0
-9290 -803 1041 0
-1042 9290 0
-1042 804 0
-9290 -804 1042 0
-1043 9291 0
-1043 680 0
-9291 -680 1043 0
-1044 9291 0
-1044 699 0
-9291 -699 1044 0
-1045 9291 0
-1045 717 0
-9291 -717 1045 0
-1046 9291 0
-1046 734 0
-9291 -734 1046 0
-1047 9291 0
-1047 750 0
-9291 -750 1047 0
-1048 9291 0
-1048 765 0
-9291 -765 1048 0
-1049 9291 0
-1049 779 0
-9291 -779 1049 0
-1050 9291 0
-1050 792 0
-9291 -792 1050 0
-1051 9291 0
-1051 805 0
-9291 -805 1051 0
-1052 9291 0
-1052 806 0
-9291 -806 1052 0
-1053 9291 0
-1053 807 0
-9291 -807 1053 0
-1054 9291 0
-1054 808 0
-9291 -808 1054 0
-1055 9291 0
-1055 809 0
-9291 -809 1055 0
-1056 9291 0
-1056 810 0
-9291 -810 1056 0
-1057 9291 0
-1057 811 0
-9291 -811 1057 0
-1058 9291 0
-1058 812 0
-9291 -812 1058 0
-1059 9291 0
-1059 813 0
-9291 -813 1059 0
-1060 9291 0
-1060 814 0
-9291 -814 1060 0
-1061 9291 0
-1061 815 0
-9291 -815 1061 0
-1062 9291 0
-1062 816 0
-9291 -816 1062 0
-1063 9292 0
-1063 681 0
-9292 -681 1063 0
-1064 9292 0
-1064 700 0
-9292 -700 1064 0
-1065 9292 0
-1065 718 0
-9292 -718 1065 0
-1066 9292 0
-1066 735 0
-9292 -735 1066 0
-1067 9292 0
-1067 751 0
-9292 -751 1067 0
-1068 9292 0
-1068 766 0
-9292 -766 1068 0
-1069 9292 0
-1069 780 0
-9292 -780 1069 0
-1070 9292 0
-1070 793 0
-9292 -793 1070 0
-1071 9292 0
-1071 805 0
-9292 -805 1071 0
-1072 9292 0
-1072 817 0
-9292 -817 1072 0
-1073 9292 0
-1073 818 0
-9292 -818 1073 0
-1074 9292 0
-1074 819 0
-9292 -819 1074 0
-1075 9292 0
-1075 820 0
-9292 -820 1075 0
-1076 9292 0
-1076 821 0
-9292 -821 1076 0
-1077 9292 0
-1077 822 0
-9292 -822 1077 0
-1078 9292 0
-1078 823 0
-9292 -823 1078 0
-1079 9292 0
-1079 824 0
-9292 -824 1079 0
-1080 9292 0
-1080 825 0
-9292 -825 1080 0
-1081 9292 0
-1081 826 0
-9292 -826 1081 0
-1082 9292 0
-1082 827 0
-9292 -827 1082 0
-1083 9293 0
-1083 682 0
-9293 -682 1083 0
-1084 9293 0
-1084 701 0
-9293 -701 1084 0
-1085 9293 0
-1085 719 0
-9293 -719 1085 0
-1086 9293 0
-1086 736 0
-9293 -736 1086 0
-1087 9293 0
-1087 752 0
-9293 -752 1087 0
-1088 9293 0
-1088 767 0
-9293 -767 1088 0
-1089 9293 0
-1089 781 0
-9293 -781 1089 0
-1090 9293 0
-1090 794 0
-9293 -794 1090 0
-1091 9293 0
-1091 806 0
-9293 -806 1091 0
-1092 9293 0
-1092 817 0
-9293 -817 1092 0
-1093 9293 0
-1093 828 0
-9293 -828 1093 0
-1094 9293 0
-1094 829 0
-9293 -829 1094 0
-1095 9293 0
-1095 830 0
-9293 -830 1095 0
-1096 9293 0
-1096 831 0
-9293 -831 1096 0
-1097 9293 0
-1097 832 0
-9293 -832 1097 0
-1098 9293 0
-1098 833 0
-9293 -833 1098 0
-1099 9293 0
-1099 834 0
-9293 -834 1099 0
-1100 9293 0
-1100 835 0
-9293 -835 1100 0
-1101 9293 0
-1101 836 0
-9293 -836 1101 0
-1102 9293 0
-1102 837 0
-9293 -837 1102 0
-1103 9294 0
-1103 683 0
-9294 -683 1103 0
-1104 9294 0
-1104 702 0
-9294 -702 1104 0
-1105 9294 0
-1105 720 0
-9294 -720 1105 0
-1106 9294 0
-1106 737 0
-9294 -737 1106 0
-1107 9294 0
-1107 753 0
-9294 -753 1107 0
-1108 9294 0
-1108 768 0
-9294 -768 1108 0
-1109 9294 0
-1109 782 0
-9294 -782 1109 0
-1110 9294 0
-1110 795 0
-9294 -795 1110 0
-1111 9294 0
-1111 807 0
-9294 -807 1111 0
-1112 9294 0
-1112 818 0
-9294 -818 1112 0
-1113 9294 0
-1113 828 0
-9294 -828 1113 0
-1114 9294 0
-1114 838 0
-9294 -838 1114 0
-1115 9294 0
-1115 839 0
-9294 -839 1115 0
-1116 9294 0
-1116 840 0
-9294 -840 1116 0
-1117 9294 0
-1117 841 0
-9294 -841 1117 0
-1118 9294 0
-1118 842 0
-9294 -842 1118 0
-1119 9294 0
-1119 843 0
-9294 -843 1119 0
-1120 9294 0
-1120 844 0
-9294 -844 1120 0
-1121 9294 0
-1121 845 0
-9294 -845 1121 0
-1122 9294 0
-1122 846 0
-9294 -846 1122 0
-1123 9295 0
-1123 684 0
-9295 -684 1123 0
-1124 9295 0
-1124 703 0
-9295 -703 1124 0
-1125 9295 0
-1125 721 0
-9295 -721 1125 0
-1126 9295 0
-1126 738 0
-9295 -738 1126 0
-1127 9295 0
-1127 754 0
-9295 -754 1127 0
-1128 9295 0
-1128 769 0
-9295 -769 1128 0
-1129 9295 0
-1129 783 0
-9295 -783 1129 0
-1130 9295 0
-1130 796 0
-9295 -796 1130 0
-1131 9295 0
-1131 808 0
-9295 -808 1131 0
-1132 9295 0
-1132 819 0
-9295 -819 1132 0
-1133 9295 0
-1133 829 0
-9295 -829 1133 0
-1134 9295 0
-1134 838 0
-9295 -838 1134 0
-1135 9295 0
-1135 847 0
-9295 -847 1135 0
-1136 9295 0
-1136 848 0
-9295 -848 1136 0
-1137 9295 0
-1137 849 0
-9295 -849 1137 0
-1138 9295 0
-1138 850 0
-9295 -850 1138 0
-1139 9295 0
-1139 851 0
-9295 -851 1139 0
-1140 9295 0
-1140 852 0
-9295 -852 1140 0
-1141 9295 0
-1141 853 0
-9295 -853 1141 0
-1142 9295 0
-1142 854 0
-9295 -854 1142 0
-1143 9296 0
-1143 685 0
-9296 -685 1143 0
-1144 9296 0
-1144 704 0
-9296 -704 1144 0
-1145 9296 0
-1145 722 0
-9296 -722 1145 0
-1146 9296 0
-1146 739 0
-9296 -739 1146 0
-1147 9296 0
-1147 755 0
-9296 -755 1147 0
-1148 9296 0
-1148 770 0
-9296 -770 1148 0
-1149 9296 0
-1149 784 0
-9296 -784 1149 0
-1150 9296 0
-1150 797 0
-9296 -797 1150 0
-1151 9296 0
-1151 809 0
-9296 -809 1151 0
-1152 9296 0
-1152 820 0
-9296 -820 1152 0
-1153 9296 0
-1153 830 0
-9296 -830 1153 0
-1154 9296 0
-1154 839 0
-9296 -839 1154 0
-1155 9296 0
-1155 847 0
-9296 -847 1155 0
-1156 9296 0
-1156 855 0
-9296 -855 1156 0
-1157 9296 0
-1157 856 0
-9296 -856 1157 0
-1158 9296 0
-1158 857 0
-9296 -857 1158 0
-1159 9296 0
-1159 858 0
-9296 -858 1159 0
-1160 9296 0
-1160 859 0
-9296 -859 1160 0
-1161 9296 0
-1161 860 0
-9296 -860 1161 0
-1162 9296 0
-1162 861 0
-9296 -861 1162 0
-1163 9297 0
-1163 686 0
-9297 -686 1163 0
-1164 9297 0
-1164 705 0
-9297 -705 1164 0
-1165 9297 0
-1165 723 0
-9297 -723 1165 0
-1166 9297 0
-1166 740 0
-9297 -740 1166 0
-1167 9297 0
-1167 756 0
-9297 -756 1167 0
-1168 9297 0
-1168 771 0
-9297 -771 1168 0
-1169 9297 0
-1169 785 0
-9297 -785 1169 0
-1170 9297 0
-1170 798 0
-9297 -798 1170 0
-1171 9297 0
-1171 810 0
-9297 -810 1171 0
-1172 9297 0
-1172 821 0
-9297 -821 1172 0
-1173 9297 0
-1173 831 0
-9297 -831 1173 0
-1174 9297 0
-1174 840 0
-9297 -840 1174 0
-1175 9297 0
-1175 848 0
-9297 -848 1175 0
-1176 9297 0
-1176 855 0
-9297 -855 1176 0
-1177 9297 0
-1177 862 0
-9297 -862 1177 0
-1178 9297 0
-1178 863 0
-9297 -863 1178 0
-1179 9297 0
-1179 864 0
-9297 -864 1179 0
-1180 9297 0
-1180 865 0
-9297 -865 1180 0
-1181 9297 0
-1181 866 0
-9297 -866 1181 0
-1182 9297 0
-1182 867 0
-9297 -867 1182 0
-1183 9298 0
-1183 687 0
-9298 -687 1183 0
-1184 9298 0
-1184 706 0
-9298 -706 1184 0
-1185 9298 0
-1185 724 0
-9298 -724 1185 0
-1186 9298 0
-1186 741 0
-9298 -741 1186 0
-1187 9298 0
-1187 757 0
-9298 -757 1187 0
-1188 9298 0
-1188 772 0
-9298 -772 1188 0
-1189 9298 0
-1189 786 0
-9298 -786 1189 0
-1190 9298 0
-1190 799 0
-9298 -799 1190 0
-1191 9298 0
-1191 811 0
-9298 -811 1191 0
-1192 9298 0
-1192 822 0
-9298 -822 1192 0
-1193 9298 0
-1193 832 0
-9298 -832 1193 0
-1194 9298 0
-1194 841 0
-9298 -841 1194 0
-1195 9298 0
-1195 849 0
-9298 -849 1195 0
-1196 9298 0
-1196 856 0
-9298 -856 1196 0
-1197 9298 0
-1197 862 0
-9298 -862 1197 0
-1198 9298 0
-1198 868 0
-9298 -868 1198 0
-1199 9298 0
-1199 869 0
-9298 -869 1199 0
-1200 9298 0
-1200 870 0
-9298 -870 1200 0
-1201 9298 0
-1201 871 0
-9298 -871 1201 0
-1202 9298 0
-1202 872 0
-9298 -872 1202 0
-1203 9299 0
-1203 688 0
-9299 -688 1203 0
-1204 9299 0
-1204 707 0
-9299 -707 1204 0
-1205 9299 0
-1205 725 0
-9299 -725 1205 0
-1206 9299 0
-1206 742 0
-9299 -742 1206 0
-1207 9299 0
-1207 758 0
-9299 -758 1207 0
-1208 9299 0
-1208 773 0
-9299 -773 1208 0
-1209 9299 0
-1209 787 0
-9299 -787 1209 0
-1210 9299 0
-1210 800 0
-9299 -800 1210 0
-1211 9299 0
-1211 812 0
-9299 -812 1211 0
-1212 9299 0
-1212 823 0
-9299 -823 1212 0
-1213 9299 0
-1213 833 0
-9299 -833 1213 0
-1214 9299 0
-1214 842 0
-9299 -842 1214 0
-1215 9299 0
-1215 850 0
-9299 -850 1215 0
-1216 9299 0
-1216 857 0
-9299 -857 1216 0
-1217 9299 0
-1217 863 0
-9299 -863 1217 0
-1218 9299 0
-1218 868 0
-9299 -868 1218 0
-1219 9299 0
-1219 873 0
-9299 -873 1219 0
-1220 9299 0
-1220 874 0
-9299 -874 1220 0
-1221 9299 0
-1221 875 0
-9299 -875 1221 0
-1222 9299 0
-1222 876 0
-9299 -876 1222 0
-1223 9300 0
-1223 689 0
-9300 -689 1223 0
-1224 9300 0
-1224 708 0
-9300 -708 1224 0
-1225 9300 0
-1225 726 0
-9300 -726 1225 0
-1226 9300 0
-1226 743 0
-9300 -743 1226 0
-1227 9300 0
-1227 759 0
-9300 -759 1227 0
-1228 9300 0
-1228 774 0
-9300 -774 1228 0
-1229 9300 0
-1229 788 0
-9300 -788 1229 0
-1230 9300 0
-1230 801 0
-9300 -801 1230 0
-1231 9300 0
-1231 813 0
-9300 -813 1231 0
-1232 9300 0
-1232 824 0
-9300 -824 1232 0
-1233 9300 0
-1233 834 0
-9300 -834 1233 0
-1234 9300 0
-1234 843 0
-9300 -843 1234 0
-1235 9300 0
-1235 851 0
-9300 -851 1235 0
-1236 9300 0
-1236 858 0
-9300 -858 1236 0
-1237 9300 0
-1237 864 0
-9300 -864 1237 0
-1238 9300 0
-1238 869 0
-9300 -869 1238 0
-1239 9300 0
-1239 873 0
-9300 -873 1239 0
-1240 9300 0
-1240 877 0
-9300 -877 1240 0
-1241 9300 0
-1241 878 0
-9300 -878 1241 0
-1242 9300 0
-1242 879 0
-9300 -879 1242 0
-1243 9301 0
-1243 690 0
-9301 -690 1243 0
-1244 9301 0
-1244 709 0
-9301 -709 1244 0
-1245 9301 0
-1245 727 0
-9301 -727 1245 0
-1246 9301 0
-1246 744 0
-9301 -744 1246 0
-1247 9301 0
-1247 760 0
-9301 -760 1247 0
-1248 9301 0
-1248 775 0
-9301 -775 1248 0
-1249 9301 0
-1249 789 0
-9301 -789 1249 0
-1250 9301 0
-1250 802 0
-9301 -802 1250 0
-1251 9301 0
-1251 814 0
-9301 -814 1251 0
-1252 9301 0
-1252 825 0
-9301 -825 1252 0
-1253 9301 0
-1253 835 0
-9301 -835 1253 0
-1254 9301 0
-1254 844 0
-9301 -844 1254 0
-1255 9301 0
-1255 852 0
-9301 -852 1255 0
-1256 9301 0
-1256 859 0
-9301 -859 1256 0
-1257 9301 0
-1257 865 0
-9301 -865 1257 0
-1258 9301 0
-1258 870 0
-9301 -870 1258 0
-1259 9301 0
-1259 874 0
-9301 -874 1259 0
-1260 9301 0
-1260 877 0
-9301 -877 1260 0
-1261 9301 0
-1261 880 0
-9301 -880 1261 0
-1262 9301 0
-1262 881 0
-9301 -881 1262 0
-1263 9302 0
-1263 691 0
-9302 -691 1263 0
-1264 9302 0
-1264 710 0
-9302 -710 1264 0
-1265 9302 0
-1265 728 0
-9302 -728 1265 0
-1266 9302 0
-1266 745 0
-9302 -745 1266 0
-1267 9302 0
-1267 761 0
-9302 -761 1267 0
-1268 9302 0
-1268 776 0
-9302 -776 1268 0
-1269 9302 0
-1269 790 0
-9302 -790 1269 0
-1270 9302 0
-1270 803 0
-9302 -803 1270 0
-1271 9302 0
-1271 815 0
-9302 -815 1271 0
-1272 9302 0
-1272 826 0
-9302 -826 1272 0
-1273 9302 0
-1273 836 0
-9302 -836 1273 0
-1274 9302 0
-1274 845 0
-9302 -845 1274 0
-1275 9302 0
-1275 853 0
-9302 -853 1275 0
-1276 9302 0
-1276 860 0
-9302 -860 1276 0
-1277 9302 0
-1277 866 0
-9302 -866 1277 0
-1278 9302 0
-1278 871 0
-9302 -871 1278 0
-1279 9302 0
-1279 875 0
-9302 -875 1279 0
-1280 9302 0
-1280 878 0
-9302 -878 1280 0
-1281 9302 0
-1281 880 0
-9302 -880 1281 0
-1282 9302 0
-1282 882 0
-9302 -882 1282 0
-1283 9303 0
-1283 692 0
-9303 -692 1283 0
-1284 9303 0
-1284 711 0
-9303 -711 1284 0
-1285 9303 0
-1285 729 0
-9303 -729 1285 0
-1286 9303 0
-1286 746 0
-9303 -746 1286 0
-1287 9303 0
-1287 762 0
-9303 -762 1287 0
-1288 9303 0
-1288 777 0
-9303 -777 1288 0
-1289 9303 0
-1289 791 0
-9303 -791 1289 0
-1290 9303 0
-1290 804 0
-9303 -804 1290 0
-1291 9303 0
-1291 816 0
-9303 -816 1291 0
-1292 9303 0
-1292 827 0
-9303 -827 1292 0
-1293 9303 0
-1293 837 0
-9303 -837 1293 0
-1294 9303 0
-1294 846 0
-9303 -846 1294 0
-1295 9303 0
-1295 854 0
-9303 -854 1295 0
-1296 9303 0
-1296 861 0
-9303 -861 1296 0
-1297 9303 0
-1297 867 0
-9303 -867 1297 0
-1298 9303 0
-1298 872 0
-9303 -872 1298 0
-1299 9303 0
-1299 876 0
-9303 -876 1299 0
-1300 9303 0
-1300 879 0
-9303 -879 1300 0
-1301 9303 0
-1301 881 0
-9303 -881 1301 0
-1302 9303 0
-1302 882 0
-9303 -882 1302 0
-1303 9304 0
-1303 673 0
-9304 -673 1303 0
-1304 9304 0
-1304 674 0
-9304 -674 1304 0
-1305 9304 0
-1305 675 0
-9304 -675 1305 0
-1306 9304 0
-1306 676 0
-9304 -676 1306 0
-1307 9304 0
-1307 677 0
-9304 -677 1307 0
-1308 9304 0
-1308 678 0
-9304 -678 1308 0
-1309 9304 0
-1309 679 0
-9304 -679 1309 0
-1310 9304 0
-1310 680 0
-9304 -680 1310 0
-1311 9304 0
-1311 681 0
-9304 -681 1311 0
-1312 9304 0
-1312 682 0
-9304 -682 1312 0
-1313 9304 0
-1313 683 0
-9304 -683 1313 0
-1314 9304 0
-1314 684 0
-9304 -684 1314 0
-1315 9304 0
-1315 685 0
-9304 -685 1315 0
-1316 9304 0
-1316 686 0
-9304 -686 1316 0
-1317 9304 0
-1317 687 0
-9304 -687 1317 0
-1318 9304 0
-1318 688 0
-9304 -688 1318 0
-1319 9304 0
-1319 689 0
-9304 -689 1319 0
-1320 9304 0
-1320 690 0
-9304 -690 1320 0
-1321 9304 0
-1321 691 0
-9304 -691 1321 0
-1322 9304 0
-1322 692 0
-9304 -692 1322 0
-1323 9305 0
-1323 673 0
-9305 -673 1323 0
-1324 9305 0
-1324 693 0
-9305 -693 1324 0
-1325 9305 0
-1325 694 0
-9305 -694 1325 0
-1326 9305 0
-1326 695 0
-9305 -695 1326 0
-1327 9305 0
-1327 696 0
-9305 -696 1327 0
-1328 9305 0
-1328 697 0
-9305 -697 1328 0
-1329 9305 0
-1329 698 0
-9305 -698 1329 0
-1330 9305 0
-1330 699 0
-9305 -699 1330 0
-1331 9305 0
-1331 700 0
-9305 -700 1331 0
-1332 9305 0
-1332 701 0
-9305 -701 1332 0
-1333 9305 0
-1333 702 0
-9305 -702 1333 0
-1334 9305 0
-1334 703 0
-9305 -703 1334 0
-1335 9305 0
-1335 704 0
-9305 -704 1335 0
-1336 9305 0
-1336 705 0
-9305 -705 1336 0
-1337 9305 0
-1337 706 0
-9305 -706 1337 0
-1338 9305 0
-1338 707 0
-9305 -707 1338 0
-1339 9305 0
-1339 708 0
-9305 -708 1339 0
-1340 9305 0
-1340 709 0
-9305 -709 1340 0
-1341 9305 0
-1341 710 0
-9305 -710 1341 0
-1342 9305 0
-1342 711 0
-9305 -711 1342 0
-1343 9306 0
-1343 674 0
-9306 -674 1343 0
-1344 9306 0
-1344 693 0
-9306 -693 1344 0
-1345 9306 0
-1345 712 0
-9306 -712 1345 0
-1346 9306 0
-1346 713 0
-9306 -713 1346 0
-1347 9306 0
-1347 714 0
-9306 -714 1347 0
-1348 9306 0
-1348 715 0
-9306 -715 1348 0
-1349 9306 0
-1349 716 0
-9306 -716 1349 0
-1350 9306 0
-1350 717 0
-9306 -717 1350 0
-1351 9306 0
-1351 718 0
-9306 -718 1351 0
-1352 9306 0
-1352 719 0
-9306 -719 1352 0
-1353 9306 0
-1353 720 0
-9306 -720 1353 0
-1354 9306 0
-1354 721 0
-9306 -721 1354 0
-1355 9306 0
-1355 722 0
-9306 -722 1355 0
-1356 9306 0
-1356 723 0
-9306 -723 1356 0
-1357 9306 0
-1357 724 0
-9306 -724 1357 0
-1358 9306 0
-1358 725 0
-9306 -725 1358 0
-1359 9306 0
-1359 726 0
-9306 -726 1359 0
-1360 9306 0
-1360 727 0
-9306 -727 1360 0
-1361 9306 0
-1361 728 0
-9306 -728 1361 0
-1362 9306 0
-1362 729 0
-9306 -729 1362 0
-1363 9307 0
-1363 675 0
-9307 -675 1363 0
-1364 9307 0
-1364 694 0
-9307 -694 1364 0
-1365 9307 0
-1365 712 0
-9307 -712 1365 0
-1366 9307 0
-1366 730 0
-9307 -730 1366 0
-1367 9307 0
-1367 731 0
-9307 -731 1367 0
-1368 9307 0
-1368 732 0
-9307 -732 1368 0
-1369 9307 0
-1369 733 0
-9307 -733 1369 0
-1370 9307 0
-1370 734 0
-9307 -734 1370 0
-1371 9307 0
-1371 735 0
-9307 -735 1371 0
-1372 9307 0
-1372 736 0
-9307 -736 1372 0
-1373 9307 0
-1373 737 0
-9307 -737 1373 0
-1374 9307 0
-1374 738 0
-9307 -738 1374 0
-1375 9307 0
-1375 739 0
-9307 -739 1375 0
-1376 9307 0
-1376 740 0
-9307 -740 1376 0
-1377 9307 0
-1377 741 0
-9307 -741 1377 0
-1378 9307 0
-1378 742 0
-9307 -742 1378 0
-1379 9307 0
-1379 743 0
-9307 -743 1379 0
-1380 9307 0
-1380 744 0
-9307 -744 1380 0
-1381 9307 0
-1381 745 0
-9307 -745 1381 0
-1382 9307 0
-1382 746 0
-9307 -746 1382 0
-1383 9308 0
-1383 676 0
-9308 -676 1383 0
-1384 9308 0
-1384 695 0
-9308 -695 1384 0
-1385 9308 0
-1385 713 0
-9308 -713 1385 0
-1386 9308 0
-1386 730 0
-9308 -730 1386 0
-1387 9308 0
-1387 747 0
-9308 -747 1387 0
-1388 9308 0
-1388 748 0
-9308 -748 1388 0
-1389 9308 0
-1389 749 0
-9308 -749 1389 0
-1390 9308 0
-1390 750 0
-9308 -750 1390 0
-1391 9308 0
-1391 751 0
-9308 -751 1391 0
-1392 9308 0
-1392 752 0
-9308 -752 1392 0
-1393 9308 0
-1393 753 0
-9308 -753 1393 0
-1394 9308 0
-1394 754 0
-9308 -754 1394 0
-1395 9308 0
-1395 755 0
-9308 -755 1395 0
-1396 9308 0
-1396 756 0
-9308 -756 1396 0
-1397 9308 0
-1397 757 0
-9308 -757 1397 0
-1398 9308 0
-1398 758 0
-9308 -758 1398 0
-1399 9308 0
-1399 759 0
-9308 -759 1399 0
-1400 9308 0
-1400 760 0
-9308 -760 1400 0
-1401 9308 0
-1401 761 0
-9308 -761 1401 0
-1402 9308 0
-1402 762 0
-9308 -762 1402 0
-1403 9309 0
-1403 677 0
-9309 -677 1403 0
-1404 9309 0
-1404 696 0
-9309 -696 1404 0
-1405 9309 0
-1405 714 0
-9309 -714 1405 0
-1406 9309 0
-1406 731 0
-9309 -731 1406 0
-1407 9309 0
-1407 747 0
-9309 -747 1407 0
-1408 9309 0
-1408 763 0
-9309 -763 1408 0
-1409 9309 0
-1409 764 0
-9309 -764 1409 0
-1410 9309 0
-1410 765 0
-9309 -765 1410 0
-1411 9309 0
-1411 766 0
-9309 -766 1411 0
-1412 9309 0
-1412 767 0
-9309 -767 1412 0
-1413 9309 0
-1413 768 0
-9309 -768 1413 0
-1414 9309 0
-1414 769 0
-9309 -769 1414 0
-1415 9309 0
-1415 770 0
-9309 -770 1415 0
-1416 9309 0
-1416 771 0
-9309 -771 1416 0
-1417 9309 0
-1417 772 0
-9309 -772 1417 0
-1418 9309 0
-1418 773 0
-9309 -773 1418 0
-1419 9309 0
-1419 774 0
-9309 -774 1419 0
-1420 9309 0
-1420 775 0
-9309 -775 1420 0
-1421 9309 0
-1421 776 0
-9309 -776 1421 0
-1422 9309 0
-1422 777 0
-9309 -777 1422 0
-1423 9310 0
-1423 678 0
-9310 -678 1423 0
-1424 9310 0
-1424 697 0
-9310 -697 1424 0
-1425 9310 0
-1425 715 0
-9310 -715 1425 0
-1426 9310 0
-1426 732 0
-9310 -732 1426 0
-1427 9310 0
-1427 748 0
-9310 -748 1427 0
-1428 9310 0
-1428 763 0
-9310 -763 1428 0
-1429 9310 0
-1429 778 0
-9310 -778 1429 0
-1430 9310 0
-1430 779 0
-9310 -779 1430 0
-1431 9310 0
-1431 780 0
-9310 -780 1431 0
-1432 9310 0
-1432 781 0
-9310 -781 1432 0
-1433 9310 0
-1433 782 0
-9310 -782 1433 0
-1434 9310 0
-1434 783 0
-9310 -783 1434 0
-1435 9310 0
-1435 784 0
-9310 -784 1435 0
-1436 9310 0
-1436 785 0
-9310 -785 1436 0
-1437 9310 0
-1437 786 0
-9310 -786 1437 0
-1438 9310 0
-1438 787 0
-9310 -787 1438 0
-1439 9310 0
-1439 788 0
-9310 -788 1439 0
-1440 9310 0
-1440 789 0
-9310 -789 1440 0
-1441 9310 0
-1441 790 0
-9310 -790 1441 0
-1442 9310 0
-1442 791 0
-9310 -791 1442 0
-1443 9311 0
-1443 679 0
-9311 -679 1443 0
-1444 9311 0
-1444 698 0
-9311 -698 1444 0
-1445 9311 0
-1445 716 0
-9311 -716 1445 0
-1446 9311 0
-1446 733 0
-9311 -733 1446 0
-1447 9311 0
-1447 749 0
-9311 -749 1447 0
-1448 9311 0
-1448 764 0
-9311 -764 1448 0
-1449 9311 0
-1449 778 0
-9311 -778 1449 0
-1450 9311 0
-1450 792 0
-9311 -792 1450 0
-1451 9311 0
-1451 793 0
-9311 -793 1451 0
-1452 9311 0
-1452 794 0
-9311 -794 1452 0
-1453 9311 0
-1453 795 0
-9311 -795 1453 0
-1454 9311 0
-1454 796 0
-9311 -796 1454 0
-1455 9311 0
-1455 797 0
-9311 -797 1455 0
-1456 9311 0
-1456 798 0
-9311 -798 1456 0
-1457 9311 0
-1457 799 0
-9311 -799 1457 0
-1458 9311 0
-1458 800 0
-9311 -800 1458 0
-1459 9311 0
-1459 801 0
-9311 -801 1459 0
-1460 9311 0
-1460 802 0
-9311 -802 1460 0
-1461 9311 0
-1461 803 0
-9311 -803 1461 0
-1462 9311 0
-1462 804 0
-9311 -804 1462 0
-1463 9312 0
-1463 680 0
-9312 -680 1463 0
-1464 9312 0
-1464 699 0
-9312 -699 1464 0
-1465 9312 0
-1465 717 0
-9312 -717 1465 0
-1466 9312 0
-1466 734 0
-9312 -734 1466 0
-1467 9312 0
-1467 750 0
-9312 -750 1467 0
-1468 9312 0
-1468 765 0
-9312 -765 1468 0
-1469 9312 0
-1469 779 0
-9312 -779 1469 0
-1470 9312 0
-1470 792 0
-9312 -792 1470 0
-1471 9312 0
-1471 805 0
-9312 -805 1471 0
-1472 9312 0
-1472 806 0
-9312 -806 1472 0
-1473 9312 0
-1473 807 0
-9312 -807 1473 0
-1474 9312 0
-1474 808 0
-9312 -808 1474 0
-1475 9312 0
-1475 809 0
-9312 -809 1475 0
-1476 9312 0
-1476 810 0
-9312 -810 1476 0
-1477 9312 0
-1477 811 0
-9312 -811 1477 0
-1478 9312 0
-1478 812 0
-9312 -812 1478 0
-1479 9312 0
-1479 813 0
-9312 -813 1479 0
-1480 9312 0
-1480 814 0
-9312 -814 1480 0
-1481 9312 0
-1481 815 0
-9312 -815 1481 0
-1482 9312 0
-1482 816 0
-9312 -816 1482 0
-1483 9313 0
-1483 681 0
-9313 -681 1483 0
-1484 9313 0
-1484 700 0
-9313 -700 1484 0
-1485 9313 0
-1485 718 0
-9313 -718 1485 0
-1486 9313 0
-1486 735 0
-9313 -735 1486 0
-1487 9313 0
-1487 751 0
-9313 -751 1487 0
-1488 9313 0
-1488 766 0
-9313 -766 1488 0
-1489 9313 0
-1489 780 0
-9313 -780 1489 0
-1490 9313 0
-1490 793 0
-9313 -793 1490 0
-1491 9313 0
-1491 805 0
-9313 -805 1491 0
-1492 9313 0
-1492 817 0
-9313 -817 1492 0
-1493 9313 0
-1493 818 0
-9313 -818 1493 0
-1494 9313 0
-1494 819 0
-9313 -819 1494 0
-1495 9313 0
-1495 820 0
-9313 -820 1495 0
-1496 9313 0
-1496 821 0
-9313 -821 1496 0
-1497 9313 0
-1497 822 0
-9313 -822 1497 0
-1498 9313 0
-1498 823 0
-9313 -823 1498 0
-1499 9313 0
-1499 824 0
-9313 -824 1499 0
-1500 9313 0
-1500 825 0
-9313 -825 1500 0
-1501 9313 0
-1501 826 0
-9313 -826 1501 0
-1502 9313 0
-1502 827 0
-9313 -827 1502 0
-1503 9314 0
-1503 682 0
-9314 -682 1503 0
-1504 9314 0
-1504 701 0
-9314 -701 1504 0
-1505 9314 0
-1505 719 0
-9314 -719 1505 0
-1506 9314 0
-1506 736 0
-9314 -736 1506 0
-1507 9314 0
-1507 752 0
-9314 -752 1507 0
-1508 9314 0
-1508 767 0
-9314 -767 1508 0
-1509 9314 0
-1509 781 0
-9314 -781 1509 0
-1510 9314 0
-1510 794 0
-9314 -794 1510 0
-1511 9314 0
-1511 806 0
-9314 -806 1511 0
-1512 9314 0
-1512 817 0
-9314 -817 1512 0
-1513 9314 0
-1513 828 0
-9314 -828 1513 0
-1514 9314 0
-1514 829 0
-9314 -829 1514 0
-1515 9314 0
-1515 830 0
-9314 -830 1515 0
-1516 9314 0
-1516 831 0
-9314 -831 1516 0
-1517 9314 0
-1517 832 0
-9314 -832 1517 0
-1518 9314 0
-1518 833 0
-9314 -833 1518 0
-1519 9314 0
-1519 834 0
-9314 -834 1519 0
-1520 9314 0
-1520 835 0
-9314 -835 1520 0
-1521 9314 0
-1521 836 0
-9314 -836 1521 0
-1522 9314 0
-1522 837 0
-9314 -837 1522 0
-1523 9315 0
-1523 683 0
-9315 -683 1523 0
-1524 9315 0
-1524 702 0
-9315 -702 1524 0
-1525 9315 0
-1525 720 0
-9315 -720 1525 0
-1526 9315 0
-1526 737 0
-9315 -737 1526 0
-1527 9315 0
-1527 753 0
-9315 -753 1527 0
-1528 9315 0
-1528 768 0
-9315 -768 1528 0
-1529 9315 0
-1529 782 0
-9315 -782 1529 0
-1530 9315 0
-1530 795 0
-9315 -795 1530 0
-1531 9315 0
-1531 807 0
-9315 -807 1531 0
-1532 9315 0
-1532 818 0
-9315 -818 1532 0
-1533 9315 0
-1533 828 0
-9315 -828 1533 0
-1534 9315 0
-1534 838 0
-9315 -838 1534 0
-1535 9315 0
-1535 839 0
-9315 -839 1535 0
-1536 9315 0
-1536 840 0
-9315 -840 1536 0
-1537 9315 0
-1537 841 0
-9315 -841 1537 0
-1538 9315 0
-1538 842 0
-9315 -842 1538 0
-1539 9315 0
-1539 843 0
-9315 -843 1539 0
-1540 9315 0
-1540 844 0
-9315 -844 1540 0
-1541 9315 0
-1541 845 0
-9315 -845 1541 0
-1542 9315 0
-1542 846 0
-9315 -846 1542 0
-1543 9316 0
-1543 684 0
-9316 -684 1543 0
-1544 9316 0
-1544 703 0
-9316 -703 1544 0
-1545 9316 0
-1545 721 0
-9316 -721 1545 0
-1546 9316 0
-1546 738 0
-9316 -738 1546 0
-1547 9316 0
-1547 754 0
-9316 -754 1547 0
-1548 9316 0
-1548 769 0
-9316 -769 1548 0
-1549 9316 0
-1549 783 0
-9316 -783 1549 0
-1550 9316 0
-1550 796 0
-9316 -796 1550 0
-1551 9316 0
-1551 808 0
-9316 -808 1551 0
-1552 9316 0
-1552 819 0
-9316 -819 1552 0
-1553 9316 0
-1553 829 0
-9316 -829 1553 0
-1554 9316 0
-1554 838 0
-9316 -838 1554 0
-1555 9316 0
-1555 847 0
-9316 -847 1555 0
-1556 9316 0
-1556 848 0
-9316 -848 1556 0
-1557 9316 0
-1557 849 0
-9316 -849 1557 0
-1558 9316 0
-1558 850 0
-9316 -850 1558 0
-1559 9316 0
-1559 851 0
-9316 -851 1559 0
-1560 9316 0
-1560 852 0
-9316 -852 1560 0
-1561 9316 0
-1561 853 0
-9316 -853 1561 0
-1562 9316 0
-1562 854 0
-9316 -854 1562 0
-1563 9317 0
-1563 685 0
-9317 -685 1563 0
-1564 9317 0
-1564 704 0
-9317 -704 1564 0
-1565 9317 0
-1565 722 0
-9317 -722 1565 0
-1566 9317 0
-1566 739 0
-9317 -739 1566 0
-1567 9317 0
-1567 755 0
-9317 -755 1567 0
-1568 9317 0
-1568 770 0
-9317 -770 1568 0
-1569 9317 0
-1569 784 0
-9317 -784 1569 0
-1570 9317 0
-1570 797 0
-9317 -797 1570 0
-1571 9317 0
-1571 809 0
-9317 -809 1571 0
-1572 9317 0
-1572 820 0
-9317 -820 1572 0
-1573 9317 0
-1573 830 0
-9317 -830 1573 0
-1574 9317 0
-1574 839 0
-9317 -839 1574 0
-1575 9317 0
-1575 847 0
-9317 -847 1575 0
-1576 9317 0
-1576 855 0
-9317 -855 1576 0
-1577 9317 0
-1577 856 0
-9317 -856 1577 0
-1578 9317 0
-1578 857 0
-9317 -857 1578 0
-1579 9317 0
-1579 858 0
-9317 -858 1579 0
-1580 9317 0
-1580 859 0
-9317 -859 1580 0
-1581 9317 0
-1581 860 0
-9317 -860 1581 0
-1582 9317 0
-1582 861 0
-9317 -861 1582 0
-1583 9318 0
-1583 686 0
-9318 -686 1583 0
-1584 9318 0
-1584 705 0
-9318 -705 1584 0
-1585 9318 0
-1585 723 0
-9318 -723 1585 0
-1586 9318 0
-1586 740 0
-9318 -740 1586 0
-1587 9318 0
-1587 756 0
-9318 -756 1587 0
-1588 9318 0
-1588 771 0
-9318 -771 1588 0
-1589 9318 0
-1589 785 0
-9318 -785 1589 0
-1590 9318 0
-1590 798 0
-9318 -798 1590 0
-1591 9318 0
-1591 810 0
-9318 -810 1591 0
-1592 9318 0
-1592 821 0
-9318 -821 1592 0
-1593 9318 0
-1593 831 0
-9318 -831 1593 0
-1594 9318 0
-1594 840 0
-9318 -840 1594 0
-1595 9318 0
-1595 848 0
-9318 -848 1595 0
-1596 9318 0
-1596 855 0
-9318 -855 1596 0
-1597 9318 0
-1597 862 0
-9318 -862 1597 0
-1598 9318 0
-1598 863 0
-9318 -863 1598 0
-1599 9318 0
-1599 864 0
-9318 -864 1599 0
-1600 9318 0
-1600 865 0
-9318 -865 1600 0
-1601 9318 0
-1601 866 0
-9318 -866 1601 0
-1602 9318 0
-1602 867 0
-9318 -867 1602 0
-1603 9319 0
-1603 687 0
-9319 -687 1603 0
-1604 9319 0
-1604 706 0
-9319 -706 1604 0
-1605 9319 0
-1605 724 0
-9319 -724 1605 0
-1606 9319 0
-1606 741 0
-9319 -741 1606 0
-1607 9319 0
-1607 757 0
-9319 -757 1607 0
-1608 9319 0
-1608 772 0
-9319 -772 1608 0
-1609 9319 0
-1609 786 0
-9319 -786 1609 0
-1610 9319 0
-1610 799 0
-9319 -799 1610 0
-1611 9319 0
-1611 811 0
-9319 -811 1611 0
-1612 9319 0
-1612 822 0
-9319 -822 1612 0
-1613 9319 0
-1613 832 0
-9319 -832 1613 0
-1614 9319 0
-1614 841 0
-9319 -841 1614 0
-1615 9319 0
-1615 849 0
-9319 -849 1615 0
-1616 9319 0
-1616 856 0
-9319 -856 1616 0
-1617 9319 0
-1617 862 0
-9319 -862 1617 0
-1618 9319 0
-1618 868 0
-9319 -868 1618 0
-1619 9319 0
-1619 869 0
-9319 -869 1619 0
-1620 9319 0
-1620 870 0
-9319 -870 1620 0
-1621 9319 0
-1621 871 0
-9319 -871 1621 0
-1622 9319 0
-1622 872 0
-9319 -872 1622 0
-1623 9320 0
-1623 688 0
-9320 -688 1623 0
-1624 9320 0
-1624 707 0
-9320 -707 1624 0
-1625 9320 0
-1625 725 0
-9320 -725 1625 0
-1626 9320 0
-1626 742 0
-9320 -742 1626 0
-1627 9320 0
-1627 758 0
-9320 -758 1627 0
-1628 9320 0
-1628 773 0
-9320 -773 1628 0
-1629 9320 0
-1629 787 0
-9320 -787 1629 0
-1630 9320 0
-1630 800 0
-9320 -800 1630 0
-1631 9320 0
-1631 812 0
-9320 -812 1631 0
-1632 9320 0
-1632 823 0
-9320 -823 1632 0
-1633 9320 0
-1633 833 0
-9320 -833 1633 0
-1634 9320 0
-1634 842 0
-9320 -842 1634 0
-1635 9320 0
-1635 850 0
-9320 -850 1635 0
-1636 9320 0
-1636 857 0
-9320 -857 1636 0
-1637 9320 0
-1637 863 0
-9320 -863 1637 0
-1638 9320 0
-1638 868 0
-9320 -868 1638 0
-1639 9320 0
-1639 873 0
-9320 -873 1639 0
-1640 9320 0
-1640 874 0
-9320 -874 1640 0
-1641 9320 0
-1641 875 0
-9320 -875 1641 0
-1642 9320 0
-1642 876 0
-9320 -876 1642 0
-1643 9321 0
-1643 689 0
-9321 -689 1643 0
-1644 9321 0
-1644 708 0
-9321 -708 1644 0
-1645 9321 0
-1645 726 0
-9321 -726 1645 0
-1646 9321 0
-1646 743 0
-9321 -743 1646 0
-1647 9321 0
-1647 759 0
-9321 -759 1647 0
-1648 9321 0
-1648 774 0
-9321 -774 1648 0
-1649 9321 0
-1649 788 0
-9321 -788 1649 0
-1650 9321 0
-1650 801 0
-9321 -801 1650 0
-1651 9321 0
-1651 813 0
-9321 -813 1651 0
-1652 9321 0
-1652 824 0
-9321 -824 1652 0
-1653 9321 0
-1653 834 0
-9321 -834 1653 0
-1654 9321 0
-1654 843 0
-9321 -843 1654 0
-1655 9321 0
-1655 851 0
-9321 -851 1655 0
-1656 9321 0
-1656 858 0
-9321 -858 1656 0
-1657 9321 0
-1657 864 0
-9321 -864 1657 0
-1658 9321 0
-1658 869 0
-9321 -869 1658 0
-1659 9321 0
-1659 873 0
-9321 -873 1659 0
-1660 9321 0
-1660 877 0
-9321 -877 1660 0
-1661 9321 0
-1661 878 0
-9321 -878 1661 0
-1662 9321 0
-1662 879 0
-9321 -879 1662 0
-1663 9322 0
-1663 690 0
-9322 -690 1663 0
-1664 9322 0
-1664 709 0
-9322 -709 1664 0
-1665 9322 0
-1665 727 0
-9322 -727 1665 0
-1666 9322 0
-1666 744 0
-9322 -744 1666 0
-1667 9322 0
-1667 760 0
-9322 -760 1667 0
-1668 9322 0
-1668 775 0
-9322 -775 1668 0
-1669 9322 0
-1669 789 0
-9322 -789 1669 0
-1670 9322 0
-1670 802 0
-9322 -802 1670 0
-1671 9322 0
-1671 814 0
-9322 -814 1671 0
-1672 9322 0
-1672 825 0
-9322 -825 1672 0
-1673 9322 0
-1673 835 0
-9322 -835 1673 0
-1674 9322 0
-1674 844 0
-9322 -844 1674 0
-1675 9322 0
-1675 852 0
-9322 -852 1675 0
-1676 9322 0
-1676 859 0
-9322 -859 1676 0
-1677 9322 0
-1677 865 0
-9322 -865 1677 0
-1678 9322 0
-1678 870 0
-9322 -870 1678 0
-1679 9322 0
-1679 874 0
-9322 -874 1679 0
-1680 9322 0
-1680 877 0
-9322 -877 1680 0
-1681 9322 0
-1681 880 0
-9322 -880 1681 0
-1682 9322 0
-1682 881 0
-9322 -881 1682 0
-1683 9323 0
-1683 691 0
-9323 -691 1683 0
-1684 9323 0
-1684 710 0
-9323 -710 1684 0
-1685 9323 0
-1685 728 0
-9323 -728 1685 0
-1686 9323 0
-1686 745 0
-9323 -745 1686 0
-1687 9323 0
-1687 761 0
-9323 -761 1687 0
-1688 9323 0
-1688 776 0
-9323 -776 1688 0
-1689 9323 0
-1689 790 0
-9323 -790 1689 0
-1690 9323 0
-1690 803 0
-9323 -803 1690 0
-1691 9323 0
-1691 815 0
-9323 -815 1691 0
-1692 9323 0
-1692 826 0
-9323 -826 1692 0
-1693 9323 0
-1693 836 0
-9323 -836 1693 0
-1694 9323 0
-1694 845 0
-9323 -845 1694 0
-1695 9323 0
-1695 853 0
-9323 -853 1695 0
-1696 9323 0
-1696 860 0
-9323 -860 1696 0
-1697 9323 0
-1697 866 0
-9323 -866 1697 0
-1698 9323 0
-1698 871 0
-9323 -871 1698 0
-1699 9323 0
-1699 875 0
-9323 -875 1699 0
-1700 9323 0
-1700 878 0
-9323 -878 1700 0
-1701 9323 0
-1701 880 0
-9323 -880 1701 0
-1702 9323 0
-1702 882 0
-9323 -882 1702 0
-1703 9324 0
-1703 692 0
-9324 -692 1703 0
-1704 9324 0
-1704 711 0
-9324 -711 1704 0
-1705 9324 0
-1705 729 0
-9324 -729 1705 0
-1706 9324 0
-1706 746 0
-9324 -746 1706 0
-1707 9324 0
-1707 762 0
-9324 -762 1707 0
-1708 9324 0
-1708 777 0
-9324 -777 1708 0
-1709 9324 0
-1709 791 0
-9324 -791 1709 0
-1710 9324 0
-1710 804 0
-9324 -804 1710 0
-1711 9324 0
-1711 816 0
-9324 -816 1711 0
-1712 9324 0
-1712 827 0
-9324 -827 1712 0
-1713 9324 0
-1713 837 0
-9324 -837 1713 0
-1714 9324 0
-1714 846 0
-9324 -846 1714 0
-1715 9324 0
-1715 854 0
-9324 -854 1715 0
-1716 9324 0
-1716 861 0
-9324 -861 1716 0
-1717 9324 0
-1717 867 0
-9324 -867 1717 0
-1718 9324 0
-1718 872 0
-9324 -872 1718 0
-1719 9324 0
-1719 876 0
-9324 -876 1719 0
-1720 9324 0
-1720 879 0
-9324 -879 1720 0
-1721 9324 0
-1721 881 0
-9324 -881 1721 0
-1722 9324 0
-1722 882 0
-9324 -882 1722 0
-1723 9325 0
-1723 673 0
-9325 -673 1723 0
-1724 9325 0
-1724 674 0
-9325 -674 1724 0
-1725 9325 0
-1725 675 0
-9325 -675 1725 0
-1726 9325 0
-1726 676 0
-9325 -676 1726 0
-1727 9325 0
-1727 677 0
-9325 -677 1727 0
-1728 9325 0
-1728 678 0
-9325 -678 1728 0
-1729 9325 0
-1729 679 0
-9325 -679 1729 0
-1730 9325 0
-1730 680 0
-9325 -680 1730 0
-1731 9325 0
-1731 681 0
-9325 -681 1731 0
-1732 9325 0
-1732 682 0
-9325 -682 1732 0
-1733 9325 0
-1733 683 0
-9325 -683 1733 0
-1734 9325 0
-1734 684 0
-9325 -684 1734 0
-1735 9325 0
-1735 685 0
-9325 -685 1735 0
-1736 9325 0
-1736 686 0
-9325 -686 1736 0
-1737 9325 0
-1737 687 0
-9325 -687 1737 0
-1738 9325 0
-1738 688 0
-9325 -688 1738 0
-1739 9325 0
-1739 689 0
-9325 -689 1739 0
-1740 9325 0
-1740 690 0
-9325 -690 1740 0
-1741 9325 0
-1741 691 0
-9325 -691 1741 0
-1742 9325 0
-1742 692 0
-9325 -692 1742 0
-1743 9326 0
-1743 673 0
-9326 -673 1743 0
-1744 9326 0
-1744 693 0
-9326 -693 1744 0
-1745 9326 0
-1745 694 0
-9326 -694 1745 0
-1746 9326 0
-1746 695 0
-9326 -695 1746 0
-1747 9326 0
-1747 696 0
-9326 -696 1747 0
-1748 9326 0
-1748 697 0
-9326 -697 1748 0
-1749 9326 0
-1749 698 0
-9326 -698 1749 0
-1750 9326 0
-1750 699 0
-9326 -699 1750 0
-1751 9326 0
-1751 700 0
-9326 -700 1751 0
-1752 9326 0
-1752 701 0
-9326 -701 1752 0
-1753 9326 0
-1753 702 0
-9326 -702 1753 0
-1754 9326 0
-1754 703 0
-9326 -703 1754 0
-1755 9326 0
-1755 704 0
-9326 -704 1755 0
-1756 9326 0
-1756 705 0
-9326 -705 1756 0
-1757 9326 0
-1757 706 0
-9326 -706 1757 0
-1758 9326 0
-1758 707 0
-9326 -707 1758 0
-1759 9326 0
-1759 708 0
-9326 -708 1759 0
-1760 9326 0
-1760 709 0
-9326 -709 1760 0
-1761 9326 0
-1761 710 0
-9326 -710 1761 0
-1762 9326 0
-1762 711 0
-9326 -711 1762 0
-1763 9327 0
-1763 674 0
-9327 -674 1763 0
-1764 9327 0
-1764 693 0
-9327 -693 1764 0
-1765 9327 0
-1765 712 0
-9327 -712 1765 0
-1766 9327 0
-1766 713 0
-9327 -713 1766 0
-1767 9327 0
-1767 714 0
-9327 -714 1767 0
-1768 9327 0
-1768 715 0
-9327 -715 1768 0
-1769 9327 0
-1769 716 0
-9327 -716 1769 0
-1770 9327 0
-1770 717 0
-9327 -717 1770 0
-1771 9327 0
-1771 718 0
-9327 -718 1771 0
-1772 9327 0
-1772 719 0
-9327 -719 1772 0
-1773 9327 0
-1773 720 0
-9327 -720 1773 0
-1774 9327 0
-1774 721 0
-9327 -721 1774 0
-1775 9327 0
-1775 722 0
-9327 -722 1775 0
-1776 9327 0
-1776 723 0
-9327 -723 1776 0
-1777 9327 0
-1777 724 0
-9327 -724 1777 0
-1778 9327 0
-1778 725 0
-9327 -725 1778 0
-1779 9327 0
-1779 726 0
-9327 -726 1779 0
-1780 9327 0
-1780 727 0
-9327 -727 1780 0
-1781 9327 0
-1781 728 0
-9327 -728 1781 0
-1782 9327 0
-1782 729 0
-9327 -729 1782 0
-1783 9328 0
-1783 675 0
-9328 -675 1783 0
-1784 9328 0
-1784 694 0
-9328 -694 1784 0
-1785 9328 0
-1785 712 0
-9328 -712 1785 0
-1786 9328 0
-1786 730 0
-9328 -730 1786 0
-1787 9328 0
-1787 731 0
-9328 -731 1787 0
-1788 9328 0
-1788 732 0
-9328 -732 1788 0
-1789 9328 0
-1789 733 0
-9328 -733 1789 0
-1790 9328 0
-1790 734 0
-9328 -734 1790 0
-1791 9328 0
-1791 735 0
-9328 -735 1791 0
-1792 9328 0
-1792 736 0
-9328 -736 1792 0
-1793 9328 0
-1793 737 0
-9328 -737 1793 0
-1794 9328 0
-1794 738 0
-9328 -738 1794 0
-1795 9328 0
-1795 739 0
-9328 -739 1795 0
-1796 9328 0
-1796 740 0
-9328 -740 1796 0
-1797 9328 0
-1797 741 0
-9328 -741 1797 0
-1798 9328 0
-1798 742 0
-9328 -742 1798 0
-1799 9328 0
-1799 743 0
-9328 -743 1799 0
-1800 9328 0
-1800 744 0
-9328 -744 1800 0
-1801 9328 0
-1801 745 0
-9328 -745 1801 0
-1802 9328 0
-1802 746 0
-9328 -746 1802 0
-1803 9329 0
-1803 676 0
-9329 -676 1803 0
-1804 9329 0
-1804 695 0
-9329 -695 1804 0
-1805 9329 0
-1805 713 0
-9329 -713 1805 0
-1806 9329 0
-1806 730 0
-9329 -730 1806 0
-1807 9329 0
-1807 747 0
-9329 -747 1807 0
-1808 9329 0
-1808 748 0
-9329 -748 1808 0
-1809 9329 0
-1809 749 0
-9329 -749 1809 0
-1810 9329 0
-1810 750 0
-9329 -750 1810 0
-1811 9329 0
-1811 751 0
-9329 -751 1811 0
-1812 9329 0
-1812 752 0
-9329 -752 1812 0
-1813 9329 0
-1813 753 0
-9329 -753 1813 0
-1814 9329 0
-1814 754 0
-9329 -754 1814 0
-1815 9329 0
-1815 755 0
-9329 -755 1815 0
-1816 9329 0
-1816 756 0
-9329 -756 1816 0
-1817 9329 0
-1817 757 0
-9329 -757 1817 0
-1818 9329 0
-1818 758 0
-9329 -758 1818 0
-1819 9329 0
-1819 759 0
-9329 -759 1819 0
-1820 9329 0
-1820 760 0
-9329 -760 1820 0
-1821 9329 0
-1821 761 0
-9329 -761 1821 0
-1822 9329 0
-1822 762 0
-9329 -762 1822 0
-1823 9330 0
-1823 677 0
-9330 -677 1823 0
-1824 9330 0
-1824 696 0
-9330 -696 1824 0
-1825 9330 0
-1825 714 0
-9330 -714 1825 0
-1826 9330 0
-1826 731 0
-9330 -731 1826 0
-1827 9330 0
-1827 747 0
-9330 -747 1827 0
-1828 9330 0
-1828 763 0
-9330 -763 1828 0
-1829 9330 0
-1829 764 0
-9330 -764 1829 0
-1830 9330 0
-1830 765 0
-9330 -765 1830 0
-1831 9330 0
-1831 766 0
-9330 -766 1831 0
-1832 9330 0
-1832 767 0
-9330 -767 1832 0
-1833 9330 0
-1833 768 0
-9330 -768 1833 0
-1834 9330 0
-1834 769 0
-9330 -769 1834 0
-1835 9330 0
-1835 770 0
-9330 -770 1835 0
-1836 9330 0
-1836 771 0
-9330 -771 1836 0
-1837 9330 0
-1837 772 0
-9330 -772 1837 0
-1838 9330 0
-1838 773 0
-9330 -773 1838 0
-1839 9330 0
-1839 774 0
-9330 -774 1839 0
-1840 9330 0
-1840 775 0
-9330 -775 1840 0
-1841 9330 0
-1841 776 0
-9330 -776 1841 0
-1842 9330 0
-1842 777 0
-9330 -777 1842 0
-1843 9331 0
-1843 678 0
-9331 -678 1843 0
-1844 9331 0
-1844 697 0
-9331 -697 1844 0
-1845 9331 0
-1845 715 0
-9331 -715 1845 0
-1846 9331 0
-1846 732 0
-9331 -732 1846 0
-1847 9331 0
-1847 748 0
-9331 -748 1847 0
-1848 9331 0
-1848 763 0
-9331 -763 1848 0
-1849 9331 0
-1849 778 0
-9331 -778 1849 0
-1850 9331 0
-1850 779 0
-9331 -779 1850 0
-1851 9331 0
-1851 780 0
-9331 -780 1851 0
-1852 9331 0
-1852 781 0
-9331 -781 1852 0
-1853 9331 0
-1853 782 0
-9331 -782 1853 0
-1854 9331 0
-1854 783 0
-9331 -783 1854 0
-1855 9331 0
-1855 784 0
-9331 -784 1855 0
-1856 9331 0
-1856 785 0
-9331 -785 1856 0
-1857 9331 0
-1857 786 0
-9331 -786 1857 0
-1858 9331 0
-1858 787 0
-9331 -787 1858 0
-1859 9331 0
-1859 788 0
-9331 -788 1859 0
-1860 9331 0
-1860 789 0
-9331 -789 1860 0
-1861 9331 0
-1861 790 0
-9331 -790 1861 0
-1862 9331 0
-1862 791 0
-9331 -791 1862 0
-1863 9332 0
-1863 679 0
-9332 -679 1863 0
-1864 9332 0
-1864 698 0
-9332 -698 1864 0
-1865 9332 0
-1865 716 0
-9332 -716 1865 0
-1866 9332 0
-1866 733 0
-9332 -733 1866 0
-1867 9332 0
-1867 749 0
-9332 -749 1867 0
-1868 9332 0
-1868 764 0
-9332 -764 1868 0
-1869 9332 0
-1869 778 0
-9332 -778 1869 0
-1870 9332 0
-1870 792 0
-9332 -792 1870 0
-1871 9332 0
-1871 793 0
-9332 -793 1871 0
-1872 9332 0
-1872 794 0
-9332 -794 1872 0
-1873 9332 0
-1873 795 0
-9332 -795 1873 0
-1874 9332 0
-1874 796 0
-9332 -796 1874 0
-1875 9332 0
-1875 797 0
-9332 -797 1875 0
-1876 9332 0
-1876 798 0
-9332 -798 1876 0
-1877 9332 0
-1877 799 0
-9332 -799 1877 0
-1878 9332 0
-1878 800 0
-9332 -800 1878 0
-1879 9332 0
-1879 801 0
-9332 -801 1879 0
-1880 9332 0
-1880 802 0
-9332 -802 1880 0
-1881 9332 0
-1881 803 0
-9332 -803 1881 0
-1882 9332 0
-1882 804 0
-9332 -804 1882 0
-1883 9333 0
-1883 680 0
-9333 -680 1883 0
-1884 9333 0
-1884 699 0
-9333 -699 1884 0
-1885 9333 0
-1885 717 0
-9333 -717 1885 0
-1886 9333 0
-1886 734 0
-9333 -734 1886 0
-1887 9333 0
-1887 750 0
-9333 -750 1887 0
-1888 9333 0
-1888 765 0
-9333 -765 1888 0
-1889 9333 0
-1889 779 0
-9333 -779 1889 0
-1890 9333 0
-1890 792 0
-9333 -792 1890 0
-1891 9333 0
-1891 805 0
-9333 -805 1891 0
-1892 9333 0
-1892 806 0
-9333 -806 1892 0
-1893 9333 0
-1893 807 0
-9333 -807 1893 0
-1894 9333 0
-1894 808 0
-9333 -808 1894 0
-1895 9333 0
-1895 809 0
-9333 -809 1895 0
-1896 9333 0
-1896 810 0
-9333 -810 1896 0
-1897 9333 0
-1897 811 0
-9333 -811 1897 0
-1898 9333 0
-1898 812 0
-9333 -812 1898 0
-1899 9333 0
-1899 813 0
-9333 -813 1899 0
-1900 9333 0
-1900 814 0
-9333 -814 1900 0
-1901 9333 0
-1901 815 0
-9333 -815 1901 0
-1902 9333 0
-1902 816 0
-9333 -816 1902 0
-1903 9334 0
-1903 681 0
-9334 -681 1903 0
-1904 9334 0
-1904 700 0
-9334 -700 1904 0
-1905 9334 0
-1905 718 0
-9334 -718 1905 0
-1906 9334 0
-1906 735 0
-9334 -735 1906 0
-1907 9334 0
-1907 751 0
-9334 -751 1907 0
-1908 9334 0
-1908 766 0
-9334 -766 1908 0
-1909 9334 0
-1909 780 0
-9334 -780 1909 0
-1910 9334 0
-1910 793 0
-9334 -793 1910 0
-1911 9334 0
-1911 805 0
-9334 -805 1911 0
-1912 9334 0
-1912 817 0
-9334 -817 1912 0
-1913 9334 0
-1913 818 0
-9334 -818 1913 0
-1914 9334 0
-1914 819 0
-9334 -819 1914 0
-1915 9334 0
-1915 820 0
-9334 -820 1915 0
-1916 9334 0
-1916 821 0
-9334 -821 1916 0
-1917 9334 0
-1917 822 0
-9334 -822 1917 0
-1918 9334 0
-1918 823 0
-9334 -823 1918 0
-1919 9334 0
-1919 824 0
-9334 -824 1919 0
-1920 9334 0
-1920 825 0
-9334 -825 1920 0
-1921 9334 0
-1921 826 0
-9334 -826 1921 0
-1922 9334 0
-1922 827 0
-9334 -827 1922 0
-1923 9335 0
-1923 682 0
-9335 -682 1923 0
-1924 9335 0
-1924 701 0
-9335 -701 1924 0
-1925 9335 0
-1925 719 0
-9335 -719 1925 0
-1926 9335 0
-1926 736 0
-9335 -736 1926 0
-1927 9335 0
-1927 752 0
-9335 -752 1927 0
-1928 9335 0
-1928 767 0
-9335 -767 1928 0
-1929 9335 0
-1929 781 0
-9335 -781 1929 0
-1930 9335 0
-1930 794 0
-9335 -794 1930 0
-1931 9335 0
-1931 806 0
-9335 -806 1931 0
-1932 9335 0
-1932 817 0
-9335 -817 1932 0
-1933 9335 0
-1933 828 0
-9335 -828 1933 0
-1934 9335 0
-1934 829 0
-9335 -829 1934 0
-1935 9335 0
-1935 830 0
-9335 -830 1935 0
-1936 9335 0
-1936 831 0
-9335 -831 1936 0
-1937 9335 0
-1937 832 0
-9335 -832 1937 0
-1938 9335 0
-1938 833 0
-9335 -833 1938 0
-1939 9335 0
-1939 834 0
-9335 -834 1939 0
-1940 9335 0
-1940 835 0
-9335 -835 1940 0
-1941 9335 0
-1941 836 0
-9335 -836 1941 0
-1942 9335 0
-1942 837 0
-9335 -837 1942 0
-1943 9336 0
-1943 683 0
-9336 -683 1943 0
-1944 9336 0
-1944 702 0
-9336 -702 1944 0
-1945 9336 0
-1945 720 0
-9336 -720 1945 0
-1946 9336 0
-1946 737 0
-9336 -737 1946 0
-1947 9336 0
-1947 753 0
-9336 -753 1947 0
-1948 9336 0
-1948 768 0
-9336 -768 1948 0
-1949 9336 0
-1949 782 0
-9336 -782 1949 0
-1950 9336 0
-1950 795 0
-9336 -795 1950 0
-1951 9336 0
-1951 807 0
-9336 -807 1951 0
-1952 9336 0
-1952 818 0
-9336 -818 1952 0
-1953 9336 0
-1953 828 0
-9336 -828 1953 0
-1954 9336 0
-1954 838 0
-9336 -838 1954 0
-1955 9336 0
-1955 839 0
-9336 -839 1955 0
-1956 9336 0
-1956 840 0
-9336 -840 1956 0
-1957 9336 0
-1957 841 0
-9336 -841 1957 0
-1958 9336 0
-1958 842 0
-9336 -842 1958 0
-1959 9336 0
-1959 843 0
-9336 -843 1959 0
-1960 9336 0
-1960 844 0
-9336 -844 1960 0
-1961 9336 0
-1961 845 0
-9336 -845 1961 0
-1962 9336 0
-1962 846 0
-9336 -846 1962 0
-1963 9337 0
-1963 684 0
-9337 -684 1963 0
-1964 9337 0
-1964 703 0
-9337 -703 1964 0
-1965 9337 0
-1965 721 0
-9337 -721 1965 0
-1966 9337 0
-1966 738 0
-9337 -738 1966 0
-1967 9337 0
-1967 754 0
-9337 -754 1967 0
-1968 9337 0
-1968 769 0
-9337 -769 1968 0
-1969 9337 0
-1969 783 0
-9337 -783 1969 0
-1970 9337 0
-1970 796 0
-9337 -796 1970 0
-1971 9337 0
-1971 808 0
-9337 -808 1971 0
-1972 9337 0
-1972 819 0
-9337 -819 1972 0
-1973 9337 0
-1973 829 0
-9337 -829 1973 0
-1974 9337 0
-1974 838 0
-9337 -838 1974 0
-1975 9337 0
-1975 847 0
-9337 -847 1975 0
-1976 9337 0
-1976 848 0
-9337 -848 1976 0
-1977 9337 0
-1977 849 0
-9337 -849 1977 0
-1978 9337 0
-1978 850 0
-9337 -850 1978 0
-1979 9337 0
-1979 851 0
-9337 -851 1979 0
-1980 9337 0
-1980 852 0
-9337 -852 1980 0
-1981 9337 0
-1981 853 0
-9337 -853 1981 0
-1982 9337 0
-1982 854 0
-9337 -854 1982 0
-1983 9338 0
-1983 685 0
-9338 -685 1983 0
-1984 9338 0
-1984 704 0
-9338 -704 1984 0
-1985 9338 0
-1985 722 0
-9338 -722 1985 0
-1986 9338 0
-1986 739 0
-9338 -739 1986 0
-1987 9338 0
-1987 755 0
-9338 -755 1987 0
-1988 9338 0
-1988 770 0
-9338 -770 1988 0
-1989 9338 0
-1989 784 0
-9338 -784 1989 0
-1990 9338 0
-1990 797 0
-9338 -797 1990 0
-1991 9338 0
-1991 809 0
-9338 -809 1991 0
-1992 9338 0
-1992 820 0
-9338 -820 1992 0
-1993 9338 0
-1993 830 0
-9338 -830 1993 0
-1994 9338 0
-1994 839 0
-9338 -839 1994 0
-1995 9338 0
-1995 847 0
-9338 -847 1995 0
-1996 9338 0
-1996 855 0
-9338 -855 1996 0
-1997 9338 0
-1997 856 0
-9338 -856 1997 0
-1998 9338 0
-1998 857 0
-9338 -857 1998 0
-1999 9338 0
-1999 858 0
-9338 -858 1999 0
-2000 9338 0
-2000 859 0
-9338 -859 2000 0
-2001 9338 0
-2001 860 0
-9338 -860 2001 0
-2002 9338 0
-2002 861 0
-9338 -861 2002 0
-2003 9339 0
-2003 686 0
-9339 -686 2003 0
-2004 9339 0
-2004 705 0
-9339 -705 2004 0
-2005 9339 0
-2005 723 0
-9339 -723 2005 0
-2006 9339 0
-2006 740 0
-9339 -740 2006 0
-2007 9339 0
-2007 756 0
-9339 -756 2007 0
-2008 9339 0
-2008 771 0
-9339 -771 2008 0
-2009 9339 0
-2009 785 0
-9339 -785 2009 0
-2010 9339 0
-2010 798 0
-9339 -798 2010 0
-2011 9339 0
-2011 810 0
-9339 -810 2011 0
-2012 9339 0
-2012 821 0
-9339 -821 2012 0
-2013 9339 0
-2013 831 0
-9339 -831 2013 0
-2014 9339 0
-2014 840 0
-9339 -840 2014 0
-2015 9339 0
-2015 848 0
-9339 -848 2015 0
-2016 9339 0
-2016 855 0
-9339 -855 2016 0
-2017 9339 0
-2017 862 0
-9339 -862 2017 0
-2018 9339 0
-2018 863 0
-9339 -863 2018 0
-2019 9339 0
-2019 864 0
-9339 -864 2019 0
-2020 9339 0
-2020 865 0
-9339 -865 2020 0
-2021 9339 0
-2021 866 0
-9339 -866 2021 0
-2022 9339 0
-2022 867 0
-9339 -867 2022 0
-2023 9340 0
-2023 687 0
-9340 -687 2023 0
-2024 9340 0
-2024 706 0
-9340 -706 2024 0
-2025 9340 0
-2025 724 0
-9340 -724 2025 0
-2026 9340 0
-2026 741 0
-9340 -741 2026 0
-2027 9340 0
-2027 757 0
-9340 -757 2027 0
-2028 9340 0
-2028 772 0
-9340 -772 2028 0
-2029 9340 0
-2029 786 0
-9340 -786 2029 0
-2030 9340 0
-2030 799 0
-9340 -799 2030 0
-2031 9340 0
-2031 811 0
-9340 -811 2031 0
-2032 9340 0
-2032 822 0
-9340 -822 2032 0
-2033 9340 0
-2033 832 0
-9340 -832 2033 0
-2034 9340 0
-2034 841 0
-9340 -841 2034 0
-2035 9340 0
-2035 849 0
-9340 -849 2035 0
-2036 9340 0
-2036 856 0
-9340 -856 2036 0
-2037 9340 0
-2037 862 0
-9340 -862 2037 0
-2038 9340 0
-2038 868 0
-9340 -868 2038 0
-2039 9340 0
-2039 869 0
-9340 -869 2039 0
-2040 9340 0
-2040 870 0
-9340 -870 2040 0
-2041 9340 0
-2041 871 0
-9340 -871 2041 0
-2042 9340 0
-2042 872 0
-9340 -872 2042 0
-2043 9341 0
-2043 688 0
-9341 -688 2043 0
-2044 9341 0
-2044 707 0
-9341 -707 2044 0
-2045 9341 0
-2045 725 0
-9341 -725 2045 0
-2046 9341 0
-2046 742 0
-9341 -742 2046 0
-2047 9341 0
-2047 758 0
-9341 -758 2047 0
-2048 9341 0
-2048 773 0
-9341 -773 2048 0
-2049 9341 0
-2049 787 0
-9341 -787 2049 0
-2050 9341 0
-2050 800 0
-9341 -800 2050 0
-2051 9341 0
-2051 812 0
-9341 -812 2051 0
-2052 9341 0
-2052 823 0
-9341 -823 2052 0
-2053 9341 0
-2053 833 0
-9341 -833 2053 0
-2054 9341 0
-2054 842 0
-9341 -842 2054 0
-2055 9341 0
-2055 850 0
-9341 -850 2055 0
-2056 9341 0
-2056 857 0
-9341 -857 2056 0
-2057 9341 0
-2057 863 0
-9341 -863 2057 0
-2058 9341 0
-2058 868 0
-9341 -868 2058 0
-2059 9341 0
-2059 873 0
-9341 -873 2059 0
-2060 9341 0
-2060 874 0
-9341 -874 2060 0
-2061 9341 0
-2061 875 0
-9341 -875 2061 0
-2062 9341 0
-2062 876 0
-9341 -876 2062 0
-2063 9342 0
-2063 689 0
-9342 -689 2063 0
-2064 9342 0
-2064 708 0
-9342 -708 2064 0
-2065 9342 0
-2065 726 0
-9342 -726 2065 0
-2066 9342 0
-2066 743 0
-9342 -743 2066 0
-2067 9342 0
-2067 759 0
-9342 -759 2067 0
-2068 9342 0
-2068 774 0
-9342 -774 2068 0
-2069 9342 0
-2069 788 0
-9342 -788 2069 0
-2070 9342 0
-2070 801 0
-9342 -801 2070 0
-2071 9342 0
-2071 813 0
-9342 -813 2071 0
-2072 9342 0
-2072 824 0
-9342 -824 2072 0
-2073 9342 0
-2073 834 0
-9342 -834 2073 0
-2074 9342 0
-2074 843 0
-9342 -843 2074 0
-2075 9342 0
-2075 851 0
-9342 -851 2075 0
-2076 9342 0
-2076 858 0
-9342 -858 2076 0
-2077 9342 0
-2077 864 0
-9342 -864 2077 0
-2078 9342 0
-2078 869 0
-9342 -869 2078 0
-2079 9342 0
-2079 873 0
-9342 -873 2079 0
-2080 9342 0
-2080 877 0
-9342 -877 2080 0
-2081 9342 0
-2081 878 0
-9342 -878 2081 0
-2082 9342 0
-2082 879 0
-9342 -879 2082 0
-2083 9343 0
-2083 690 0
-9343 -690 2083 0
-2084 9343 0
-2084 709 0
-9343 -709 2084 0
-2085 9343 0
-2085 727 0
-9343 -727 2085 0
-2086 9343 0
-2086 744 0
-9343 -744 2086 0
-2087 9343 0
-2087 760 0
-9343 -760 2087 0
-2088 9343 0
-2088 775 0
-9343 -775 2088 0
-2089 9343 0
-2089 789 0
-9343 -789 2089 0
-2090 9343 0
-2090 802 0
-9343 -802 2090 0
-2091 9343 0
-2091 814 0
-9343 -814 2091 0
-2092 9343 0
-2092 825 0
-9343 -825 2092 0
-2093 9343 0
-2093 835 0
-9343 -835 2093 0
-2094 9343 0
-2094 844 0
-9343 -844 2094 0
-2095 9343 0
-2095 852 0
-9343 -852 2095 0
-2096 9343 0
-2096 859 0
-9343 -859 2096 0
-2097 9343 0
-2097 865 0
-9343 -865 2097 0
-2098 9343 0
-2098 870 0
-9343 -870 2098 0
-2099 9343 0
-2099 874 0
-9343 -874 2099 0
-2100 9343 0
-2100 877 0
-9343 -877 2100 0
-2101 9343 0
-2101 880 0
-9343 -880 2101 0
-2102 9343 0
-2102 881 0
-9343 -881 2102 0
-2103 9344 0
-2103 691 0
-9344 -691 2103 0
-2104 9344 0
-2104 710 0
-9344 -710 2104 0
-2105 9344 0
-2105 728 0
-9344 -728 2105 0
-2106 9344 0
-2106 745 0
-9344 -745 2106 0
-2107 9344 0
-2107 761 0
-9344 -761 2107 0
-2108 9344 0
-2108 776 0
-9344 -776 2108 0
-2109 9344 0
-2109 790 0
-9344 -790 2109 0
-2110 9344 0
-2110 803 0
-9344 -803 2110 0
-2111 9344 0
-2111 815 0
-9344 -815 2111 0
-2112 9344 0
-2112 826 0
-9344 -826 2112 0
-2113 9344 0
-2113 836 0
-9344 -836 2113 0
-2114 9344 0
-2114 845 0
-9344 -845 2114 0
-2115 9344 0
-2115 853 0
-9344 -853 2115 0
-2116 9344 0
-2116 860 0
-9344 -860 2116 0
-2117 9344 0
-2117 866 0
-9344 -866 2117 0
-2118 9344 0
-2118 871 0
-9344 -871 2118 0
-2119 9344 0
-2119 875 0
-9344 -875 2119 0
-2120 9344 0
-2120 878 0
-9344 -878 2120 0
-2121 9344 0
-2121 880 0
-9344 -880 2121 0
-2122 9344 0
-2122 882 0
-9344 -882 2122 0
-2123 9345 0
-2123 692 0
-9345 -692 2123 0
-2124 9345 0
-2124 711 0
-9345 -711 2124 0
-2125 9345 0
-2125 729 0
-9345 -729 2125 0
-2126 9345 0
-2126 746 0
-9345 -746 2126 0
-2127 9345 0
-2127 762 0
-9345 -762 2127 0
-2128 9345 0
-2128 777 0
-9345 -777 2128 0
-2129 9345 0
-2129 791 0
-9345 -791 2129 0
-2130 9345 0
-2130 804 0
-9345 -804 2130 0
-2131 9345 0
-2131 816 0
-9345 -816 2131 0
-2132 9345 0
-2132 827 0
-9345 -827 2132 0
-2133 9345 0
-2133 837 0
-9345 -837 2133 0
-2134 9345 0
-2134 846 0
-9345 -846 2134 0
-2135 9345 0
-2135 854 0
-9345 -854 2135 0
-2136 9345 0
-2136 861 0
-9345 -861 2136 0
-2137 9345 0
-2137 867 0
-9345 -867 2137 0
-2138 9345 0
-2138 872 0
-9345 -872 2138 0
-2139 9345 0
-2139 876 0
-9345 -876 2139 0
-2140 9345 0
-2140 879 0
-9345 -879 2140 0
-2141 9345 0
-2141 881 0
-9345 -881 2141 0
-2142 9345 0
-2142 882 0
-9345 -882 2142 0
-2143 9346 0
-2143 673 0
-9346 -673 2143 0
-2144 9346 0
-2144 674 0
-9346 -674 2144 0
-2145 9346 0
-2145 675 0
-9346 -675 2145 0
-2146 9346 0
-2146 676 0
-9346 -676 2146 0
-2147 9346 0
-2147 677 0
-9346 -677 2147 0
-2148 9346 0
-2148 678 0
-9346 -678 2148 0
-2149 9346 0
-2149 679 0
-9346 -679 2149 0
-2150 9346 0
-2150 680 0
-9346 -680 2150 0
-2151 9346 0
-2151 681 0
-9346 -681 2151 0
-2152 9346 0
-2152 682 0
-9346 -682 2152 0
-2153 9346 0
-2153 683 0
-9346 -683 2153 0
-2154 9346 0
-2154 684 0
-9346 -684 2154 0
-2155 9346 0
-2155 685 0
-9346 -685 2155 0
-2156 9346 0
-2156 686 0
-9346 -686 2156 0
-2157 9346 0
-2157 687 0
-9346 -687 2157 0
-2158 9346 0
-2158 688 0
-9346 -688 2158 0
-2159 9346 0
-2159 689 0
-9346 -689 2159 0
-2160 9346 0
-2160 690 0
-9346 -690 2160 0
-2161 9346 0
-2161 691 0
-9346 -691 2161 0
-2162 9346 0
-2162 692 0
-9346 -692 2162 0
-2163 9347 0
-2163 673 0
-9347 -673 2163 0
-2164 9347 0
-2164 693 0
-9347 -693 2164 0
-2165 9347 0
-2165 694 0
-9347 -694 2165 0
-2166 9347 0
-2166 695 0
-9347 -695 2166 0
-2167 9347 0
-2167 696 0
-9347 -696 2167 0
-2168 9347 0
-2168 697 0
-9347 -697 2168 0
-2169 9347 0
-2169 698 0
-9347 -698 2169 0
-2170 9347 0
-2170 699 0
-9347 -699 2170 0
-2171 9347 0
-2171 700 0
-9347 -700 2171 0
-2172 9347 0
-2172 701 0
-9347 -701 2172 0
-2173 9347 0
-2173 702 0
-9347 -702 2173 0
-2174 9347 0
-2174 703 0
-9347 -703 2174 0
-2175 9347 0
-2175 704 0
-9347 -704 2175 0
-2176 9347 0
-2176 705 0
-9347 -705 2176 0
-2177 9347 0
-2177 706 0
-9347 -706 2177 0
-2178 9347 0
-2178 707 0
-9347 -707 2178 0
-2179 9347 0
-2179 708 0
-9347 -708 2179 0
-2180 9347 0
-2180 709 0
-9347 -709 2180 0
-2181 9347 0
-2181 710 0
-9347 -710 2181 0
-2182 9347 0
-2182 711 0
-9347 -711 2182 0
-2183 9348 0
-2183 674 0
-9348 -674 2183 0
-2184 9348 0
-2184 693 0
-9348 -693 2184 0
-2185 9348 0
-2185 712 0
-9348 -712 2185 0
-2186 9348 0
-2186 713 0
-9348 -713 2186 0
-2187 9348 0
-2187 714 0
-9348 -714 2187 0
-2188 9348 0
-2188 715 0
-9348 -715 2188 0
-2189 9348 0
-2189 716 0
-9348 -716 2189 0
-2190 9348 0
-2190 717 0
-9348 -717 2190 0
-2191 9348 0
-2191 718 0
-9348 -718 2191 0
-2192 9348 0
-2192 719 0
-9348 -719 2192 0
-2193 9348 0
-2193 720 0
-9348 -720 2193 0
-2194 9348 0
-2194 721 0
-9348 -721 2194 0
-2195 9348 0
-2195 722 0
-9348 -722 2195 0
-2196 9348 0
-2196 723 0
-9348 -723 2196 0
-2197 9348 0
-2197 724 0
-9348 -724 2197 0
-2198 9348 0
-2198 725 0
-9348 -725 2198 0
-2199 9348 0
-2199 726 0
-9348 -726 2199 0
-2200 9348 0
-2200 727 0
-9348 -727 2200 0
-2201 9348 0
-2201 728 0
-9348 -728 2201 0
-2202 9348 0
-2202 729 0
-9348 -729 2202 0
-2203 9349 0
-2203 675 0
-9349 -675 2203 0
-2204 9349 0
-2204 694 0
-9349 -694 2204 0
-2205 9349 0
-2205 712 0
-9349 -712 2205 0
-2206 9349 0
-2206 730 0
-9349 -730 2206 0
-2207 9349 0
-2207 731 0
-9349 -731 2207 0
-2208 9349 0
-2208 732 0
-9349 -732 2208 0
-2209 9349 0
-2209 733 0
-9349 -733 2209 0
-2210 9349 0
-2210 734 0
-9349 -734 2210 0
-2211 9349 0
-2211 735 0
-9349 -735 2211 0
-2212 9349 0
-2212 736 0
-9349 -736 2212 0
-2213 9349 0
-2213 737 0
-9349 -737 2213 0
-2214 9349 0
-2214 738 0
-9349 -738 2214 0
-2215 9349 0
-2215 739 0
-9349 -739 2215 0
-2216 9349 0
-2216 740 0
-9349 -740 2216 0
-2217 9349 0
-2217 741 0
-9349 -741 2217 0
-2218 9349 0
-2218 742 0
-9349 -742 2218 0
-2219 9349 0
-2219 743 0
-9349 -743 2219 0
-2220 9349 0
-2220 744 0
-9349 -744 2220 0
-2221 9349 0
-2221 745 0
-9349 -745 2221 0
-2222 9349 0
-2222 746 0
-9349 -746 2222 0
-2223 9350 0
-2223 676 0
-9350 -676 2223 0
-2224 9350 0
-2224 695 0
-9350 -695 2224 0
-2225 9350 0
-2225 713 0
-9350 -713 2225 0
-2226 9350 0
-2226 730 0
-9350 -730 2226 0
-2227 9350 0
-2227 747 0
-9350 -747 2227 0
-2228 9350 0
-2228 748 0
-9350 -748 2228 0
-2229 9350 0
-2229 749 0
-9350 -749 2229 0
-2230 9350 0
-2230 750 0
-9350 -750 2230 0
-2231 9350 0
-2231 751 0
-9350 -751 2231 0
-2232 9350 0
-2232 752 0
-9350 -752 2232 0
-2233 9350 0
-2233 753 0
-9350 -753 2233 0
-2234 9350 0
-2234 754 0
-9350 -754 2234 0
-2235 9350 0
-2235 755 0
-9350 -755 2235 0
-2236 9350 0
-2236 756 0
-9350 -756 2236 0
-2237 9350 0
-2237 757 0
-9350 -757 2237 0
-2238 9350 0
-2238 758 0
-9350 -758 2238 0
-2239 9350 0
-2239 759 0
-9350 -759 2239 0
-2240 9350 0
-2240 760 0
-9350 -760 2240 0
-2241 9350 0
-2241 761 0
-9350 -761 2241 0
-2242 9350 0
-2242 762 0
-9350 -762 2242 0
-2243 9351 0
-2243 677 0
-9351 -677 2243 0
-2244 9351 0
-2244 696 0
-9351 -696 2244 0
-2245 9351 0
-2245 714 0
-9351 -714 2245 0
-2246 9351 0
-2246 731 0
-9351 -731 2246 0
-2247 9351 0
-2247 747 0
-9351 -747 2247 0
-2248 9351 0
-2248 763 0
-9351 -763 2248 0
-2249 9351 0
-2249 764 0
-9351 -764 2249 0
-2250 9351 0
-2250 765 0
-9351 -765 2250 0
-2251 9351 0
-2251 766 0
-9351 -766 2251 0
-2252 9351 0
-2252 767 0
-9351 -767 2252 0
-2253 9351 0
-2253 768 0
-9351 -768 2253 0
-2254 9351 0
-2254 769 0
-9351 -769 2254 0
-2255 9351 0
-2255 770 0
-9351 -770 2255 0
-2256 9351 0
-2256 771 0
-9351 -771 2256 0
-2257 9351 0
-2257 772 0
-9351 -772 2257 0
-2258 9351 0
-2258 773 0
-9351 -773 2258 0
-2259 9351 0
-2259 774 0
-9351 -774 2259 0
-2260 9351 0
-2260 775 0
-9351 -775 2260 0
-2261 9351 0
-2261 776 0
-9351 -776 2261 0
-2262 9351 0
-2262 777 0
-9351 -777 2262 0
-2263 9352 0
-2263 678 0
-9352 -678 2263 0
-2264 9352 0
-2264 697 0
-9352 -697 2264 0
-2265 9352 0
-2265 715 0
-9352 -715 2265 0
-2266 9352 0
-2266 732 0
-9352 -732 2266 0
-2267 9352 0
-2267 748 0
-9352 -748 2267 0
-2268 9352 0
-2268 763 0
-9352 -763 2268 0
-2269 9352 0
-2269 778 0
-9352 -778 2269 0
-2270 9352 0
-2270 779 0
-9352 -779 2270 0
-2271 9352 0
-2271 780 0
-9352 -780 2271 0
-2272 9352 0
-2272 781 0
-9352 -781 2272 0
-2273 9352 0
-2273 782 0
-9352 -782 2273 0
-2274 9352 0
-2274 783 0
-9352 -783 2274 0
-2275 9352 0
-2275 784 0
-9352 -784 2275 0
-2276 9352 0
-2276 785 0
-9352 -785 2276 0
-2277 9352 0
-2277 786 0
-9352 -786 2277 0
-2278 9352 0
-2278 787 0
-9352 -787 2278 0
-2279 9352 0
-2279 788 0
-9352 -788 2279 0
-2280 9352 0
-2280 789 0
-9352 -789 2280 0
-2281 9352 0
-2281 790 0
-9352 -790 2281 0
-2282 9352 0
-2282 791 0
-9352 -791 2282 0
-2283 9353 0
-2283 679 0
-9353 -679 2283 0
-2284 9353 0
-2284 698 0
-9353 -698 2284 0
-2285 9353 0
-2285 716 0
-9353 -716 2285 0
-2286 9353 0
-2286 733 0
-9353 -733 2286 0
-2287 9353 0
-2287 749 0
-9353 -749 2287 0
-2288 9353 0
-2288 764 0
-9353 -764 2288 0
-2289 9353 0
-2289 778 0
-9353 -778 2289 0
-2290 9353 0
-2290 792 0
-9353 -792 2290 0
-2291 9353 0
-2291 793 0
-9353 -793 2291 0
-2292 9353 0
-2292 794 0
-9353 -794 2292 0
-2293 9353 0
-2293 795 0
-9353 -795 2293 0
-2294 9353 0
-2294 796 0
-9353 -796 2294 0
-2295 9353 0
-2295 797 0
-9353 -797 2295 0
-2296 9353 0
-2296 798 0
-9353 -798 2296 0
-2297 9353 0
-2297 799 0
-9353 -799 2297 0
-2298 9353 0
-2298 800 0
-9353 -800 2298 0
-2299 9353 0
-2299 801 0
-9353 -801 2299 0
-2300 9353 0
-2300 802 0
-9353 -802 2300 0
-2301 9353 0
-2301 803 0
-9353 -803 2301 0
-2302 9353 0
-2302 804 0
-9353 -804 2302 0
-2303 9354 0
-2303 680 0
-9354 -680 2303 0
-2304 9354 0
-2304 699 0
-9354 -699 2304 0
-2305 9354 0
-2305 717 0
-9354 -717 2305 0
-2306 9354 0
-2306 734 0
-9354 -734 2306 0
-2307 9354 0
-2307 750 0
-9354 -750 2307 0
-2308 9354 0
-2308 765 0
-9354 -765 2308 0
-2309 9354 0
-2309 779 0
-9354 -779 2309 0
-2310 9354 0
-2310 792 0
-9354 -792 2310 0
-2311 9354 0
-2311 805 0
-9354 -805 2311 0
-2312 9354 0
-2312 806 0
-9354 -806 2312 0
-2313 9354 0
-2313 807 0
-9354 -807 2313 0
-2314 9354 0
-2314 808 0
-9354 -808 2314 0
-2315 9354 0
-2315 809 0
-9354 -809 2315 0
-2316 9354 0
-2316 810 0
-9354 -810 2316 0
-2317 9354 0
-2317 811 0
-9354 -811 2317 0
-2318 9354 0
-2318 812 0
-9354 -812 2318 0
-2319 9354 0
-2319 813 0
-9354 -813 2319 0
-2320 9354 0
-2320 814 0
-9354 -814 2320 0
-2321 9354 0
-2321 815 0
-9354 -815 2321 0
-2322 9354 0
-2322 816 0
-9354 -816 2322 0
-2323 9355 0
-2323 681 0
-9355 -681 2323 0
-2324 9355 0
-2324 700 0
-9355 -700 2324 0
-2325 9355 0
-2325 718 0
-9355 -718 2325 0
-2326 9355 0
-2326 735 0
-9355 -735 2326 0
-2327 9355 0
-2327 751 0
-9355 -751 2327 0
-2328 9355 0
-2328 766 0
-9355 -766 2328 0
-2329 9355 0
-2329 780 0
-9355 -780 2329 0
-2330 9355 0
-2330 793 0
-9355 -793 2330 0
-2331 9355 0
-2331 805 0
-9355 -805 2331 0
-2332 9355 0
-2332 817 0
-9355 -817 2332 0
-2333 9355 0
-2333 818 0
-9355 -818 2333 0
-2334 9355 0
-2334 819 0
-9355 -819 2334 0
-2335 9355 0
-2335 820 0
-9355 -820 2335 0
-2336 9355 0
-2336 821 0
-9355 -821 2336 0
-2337 9355 0
-2337 822 0
-9355 -822 2337 0
-2338 9355 0
-2338 823 0
-9355 -823 2338 0
-2339 9355 0
-2339 824 0
-9355 -824 2339 0
-2340 9355 0
-2340 825 0
-9355 -825 2340 0
-2341 9355 0
-2341 826 0
-9355 -826 2341 0
-2342 9355 0
-2342 827 0
-9355 -827 2342 0
-2343 9356 0
-2343 682 0
-9356 -682 2343 0
-2344 9356 0
-2344 701 0
-9356 -701 2344 0
-2345 9356 0
-2345 719 0
-9356 -719 2345 0
-2346 9356 0
-2346 736 0
-9356 -736 2346 0
-2347 9356 0
-2347 752 0
-9356 -752 2347 0
-2348 9356 0
-2348 767 0
-9356 -767 2348 0
-2349 9356 0
-2349 781 0
-9356 -781 2349 0
-2350 9356 0
-2350 794 0
-9356 -794 2350 0
-2351 9356 0
-2351 806 0
-9356 -806 2351 0
-2352 9356 0
-2352 817 0
-9356 -817 2352 0
-2353 9356 0
-2353 828 0
-9356 -828 2353 0
-2354 9356 0
-2354 829 0
-9356 -829 2354 0
-2355 9356 0
-2355 830 0
-9356 -830 2355 0
-2356 9356 0
-2356 831 0
-9356 -831 2356 0
-2357 9356 0
-2357 832 0
-9356 -832 2357 0
-2358 9356 0
-2358 833 0
-9356 -833 2358 0
-2359 9356 0
-2359 834 0
-9356 -834 2359 0
-2360 9356 0
-2360 835 0
-9356 -835 2360 0
-2361 9356 0
-2361 836 0
-9356 -836 2361 0
-2362 9356 0
-2362 837 0
-9356 -837 2362 0
-2363 9357 0
-2363 683 0
-9357 -683 2363 0
-2364 9357 0
-2364 702 0
-9357 -702 2364 0
-2365 9357 0
-2365 720 0
-9357 -720 2365 0
-2366 9357 0
-2366 737 0
-9357 -737 2366 0
-2367 9357 0
-2367 753 0
-9357 -753 2367 0
-2368 9357 0
-2368 768 0
-9357 -768 2368 0
-2369 9357 0
-2369 782 0
-9357 -782 2369 0
-2370 9357 0
-2370 795 0
-9357 -795 2370 0
-2371 9357 0
-2371 807 0
-9357 -807 2371 0
-2372 9357 0
-2372 818 0
-9357 -818 2372 0
-2373 9357 0
-2373 828 0
-9357 -828 2373 0
-2374 9357 0
-2374 838 0
-9357 -838 2374 0
-2375 9357 0
-2375 839 0
-9357 -839 2375 0
-2376 9357 0
-2376 840 0
-9357 -840 2376 0
-2377 9357 0
-2377 841 0
-9357 -841 2377 0
-2378 9357 0
-2378 842 0
-9357 -842 2378 0
-2379 9357 0
-2379 843 0
-9357 -843 2379 0
-2380 9357 0
-2380 844 0
-9357 -844 2380 0
-2381 9357 0
-2381 845 0
-9357 -845 2381 0
-2382 9357 0
-2382 846 0
-9357 -846 2382 0
-2383 9358 0
-2383 684 0
-9358 -684 2383 0
-2384 9358 0
-2384 703 0
-9358 -703 2384 0
-2385 9358 0
-2385 721 0
-9358 -721 2385 0
-2386 9358 0
-2386 738 0
-9358 -738 2386 0
-2387 9358 0
-2387 754 0
-9358 -754 2387 0
-2388 9358 0
-2388 769 0
-9358 -769 2388 0
-2389 9358 0
-2389 783 0
-9358 -783 2389 0
-2390 9358 0
-2390 796 0
-9358 -796 2390 0
-2391 9358 0
-2391 808 0
-9358 -808 2391 0
-2392 9358 0
-2392 819 0
-9358 -819 2392 0
-2393 9358 0
-2393 829 0
-9358 -829 2393 0
-2394 9358 0
-2394 838 0
-9358 -838 2394 0
-2395 9358 0
-2395 847 0
-9358 -847 2395 0
-2396 9358 0
-2396 848 0
-9358 -848 2396 0
-2397 9358 0
-2397 849 0
-9358 -849 2397 0
-2398 9358 0
-2398 850 0
-9358 -850 2398 0
-2399 9358 0
-2399 851 0
-9358 -851 2399 0
-2400 9358 0
-2400 852 0
-9358 -852 2400 0
-2401 9358 0
-2401 853 0
-9358 -853 2401 0
-2402 9358 0
-2402 854 0
-9358 -854 2402 0
-2403 9359 0
-2403 685 0
-9359 -685 2403 0
-2404 9359 0
-2404 704 0
-9359 -704 2404 0
-2405 9359 0
-2405 722 0
-9359 -722 2405 0
-2406 9359 0
-2406 739 0
-9359 -739 2406 0
-2407 9359 0
-2407 755 0
-9359 -755 2407 0
-2408 9359 0
-2408 770 0
-9359 -770 2408 0
-2409 9359 0
-2409 784 0
-9359 -784 2409 0
-2410 9359 0
-2410 797 0
-9359 -797 2410 0
-2411 9359 0
-2411 809 0
-9359 -809 2411 0
-2412 9359 0
-2412 820 0
-9359 -820 2412 0
-2413 9359 0
-2413 830 0
-9359 -830 2413 0
-2414 9359 0
-2414 839 0
-9359 -839 2414 0
-2415 9359 0
-2415 847 0
-9359 -847 2415 0
-2416 9359 0
-2416 855 0
-9359 -855 2416 0
-2417 9359 0
-2417 856 0
-9359 -856 2417 0
-2418 9359 0
-2418 857 0
-9359 -857 2418 0
-2419 9359 0
-2419 858 0
-9359 -858 2419 0
-2420 9359 0
-2420 859 0
-9359 -859 2420 0
-2421 9359 0
-2421 860 0
-9359 -860 2421 0
-2422 9359 0
-2422 861 0
-9359 -861 2422 0
-2423 9360 0
-2423 686 0
-9360 -686 2423 0
-2424 9360 0
-2424 705 0
-9360 -705 2424 0
-2425 9360 0
-2425 723 0
-9360 -723 2425 0
-2426 9360 0
-2426 740 0
-9360 -740 2426 0
-2427 9360 0
-2427 756 0
-9360 -756 2427 0
-2428 9360 0
-2428 771 0
-9360 -771 2428 0
-2429 9360 0
-2429 785 0
-9360 -785 2429 0
-2430 9360 0
-2430 798 0
-9360 -798 2430 0
-2431 9360 0
-2431 810 0
-9360 -810 2431 0
-2432 9360 0
-2432 821 0
-9360 -821 2432 0
-2433 9360 0
-2433 831 0
-9360 -831 2433 0
-2434 9360 0
-2434 840 0
-9360 -840 2434 0
-2435 9360 0
-2435 848 0
-9360 -848 2435 0
-2436 9360 0
-2436 855 0
-9360 -855 2436 0
-2437 9360 0
-2437 862 0
-9360 -862 2437 0
-2438 9360 0
-2438 863 0
-9360 -863 2438 0
-2439 9360 0
-2439 864 0
-9360 -864 2439 0
-2440 9360 0
-2440 865 0
-9360 -865 2440 0
-2441 9360 0
-2441 866 0
-9360 -866 2441 0
-2442 9360 0
-2442 867 0
-9360 -867 2442 0
-2443 9361 0
-2443 687 0
-9361 -687 2443 0
-2444 9361 0
-2444 706 0
-9361 -706 2444 0
-2445 9361 0
-2445 724 0
-9361 -724 2445 0
-2446 9361 0
-2446 741 0
-9361 -741 2446 0
-2447 9361 0
-2447 757 0
-9361 -757 2447 0
-2448 9361 0
-2448 772 0
-9361 -772 2448 0
-2449 9361 0
-2449 786 0
-9361 -786 2449 0
-2450 9361 0
-2450 799 0
-9361 -799 2450 0
-2451 9361 0
-2451 811 0
-9361 -811 2451 0
-2452 9361 0
-2452 822 0
-9361 -822 2452 0
-2453 9361 0
-2453 832 0
-9361 -832 2453 0
-2454 9361 0
-2454 841 0
-9361 -841 2454 0
-2455 9361 0
-2455 849 0
-9361 -849 2455 0
-2456 9361 0
-2456 856 0
-9361 -856 2456 0
-2457 9361 0
-2457 862 0
-9361 -862 2457 0
-2458 9361 0
-2458 868 0
-9361 -868 2458 0
-2459 9361 0
-2459 869 0
-9361 -869 2459 0
-2460 9361 0
-2460 870 0
-9361 -870 2460 0
-2461 9361 0
-2461 871 0
-9361 -871 2461 0
-2462 9361 0
-2462 872 0
-9361 -872 2462 0
-2463 9362 0
-2463 688 0
-9362 -688 2463 0
-2464 9362 0
-2464 707 0
-9362 -707 2464 0
-2465 9362 0
-2465 725 0
-9362 -725 2465 0
-2466 9362 0
-2466 742 0
-9362 -742 2466 0
-2467 9362 0
-2467 758 0
-9362 -758 2467 0
-2468 9362 0
-2468 773 0
-9362 -773 2468 0
-2469 9362 0
-2469 787 0
-9362 -787 2469 0
-2470 9362 0
-2470 800 0
-9362 -800 2470 0
-2471 9362 0
-2471 812 0
-9362 -812 2471 0
-2472 9362 0
-2472 823 0
-9362 -823 2472 0
-2473 9362 0
-2473 833 0
-9362 -833 2473 0
-2474 9362 0
-2474 842 0
-9362 -842 2474 0
-2475 9362 0
-2475 850 0
-9362 -850 2475 0
-2476 9362 0
-2476 857 0
-9362 -857 2476 0
-2477 9362 0
-2477 863 0
-9362 -863 2477 0
-2478 9362 0
-2478 868 0
-9362 -868 2478 0
-2479 9362 0
-2479 873 0
-9362 -873 2479 0
-2480 9362 0
-2480 874 0
-9362 -874 2480 0
-2481 9362 0
-2481 875 0
-9362 -875 2481 0
-2482 9362 0
-2482 876 0
-9362 -876 2482 0
-2483 9363 0
-2483 689 0
-9363 -689 2483 0
-2484 9363 0
-2484 708 0
-9363 -708 2484 0
-2485 9363 0
-2485 726 0
-9363 -726 2485 0
-2486 9363 0
-2486 743 0
-9363 -743 2486 0
-2487 9363 0
-2487 759 0
-9363 -759 2487 0
-2488 9363 0
-2488 774 0
-9363 -774 2488 0
-2489 9363 0
-2489 788 0
-9363 -788 2489 0
-2490 9363 0
-2490 801 0
-9363 -801 2490 0
-2491 9363 0
-2491 813 0
-9363 -813 2491 0
-2492 9363 0
-2492 824 0
-9363 -824 2492 0
-2493 9363 0
-2493 834 0
-9363 -834 2493 0
-2494 9363 0
-2494 843 0
-9363 -843 2494 0
-2495 9363 0
-2495 851 0
-9363 -851 2495 0
-2496 9363 0
-2496 858 0
-9363 -858 2496 0
-2497 9363 0
-2497 864 0
-9363 -864 2497 0
-2498 9363 0
-2498 869 0
-9363 -869 2498 0
-2499 9363 0
-2499 873 0
-9363 -873 2499 0
-2500 9363 0
-2500 877 0
-9363 -877 2500 0
-2501 9363 0
-2501 878 0
-9363 -878 2501 0
-2502 9363 0
-2502 879 0
-9363 -879 2502 0
-2503 9364 0
-2503 690 0
-9364 -690 2503 0
-2504 9364 0
-2504 709 0
-9364 -709 2504 0
-2505 9364 0
-2505 727 0
-9364 -727 2505 0
-2506 9364 0
-2506 744 0
-9364 -744 2506 0
-2507 9364 0
-2507 760 0
-9364 -760 2507 0
-2508 9364 0
-2508 775 0
-9364 -775 2508 0
-2509 9364 0
-2509 789 0
-9364 -789 2509 0
-2510 9364 0
-2510 802 0
-9364 -802 2510 0
-2511 9364 0
-2511 814 0
-9364 -814 2511 0
-2512 9364 0
-2512 825 0
-9364 -825 2512 0
-2513 9364 0
-2513 835 0
-9364 -835 2513 0
-2514 9364 0
-2514 844 0
-9364 -844 2514 0
-2515 9364 0
-2515 852 0
-9364 -852 2515 0
-2516 9364 0
-2516 859 0
-9364 -859 2516 0
-2517 9364 0
-2517 865 0
-9364 -865 2517 0
-2518 9364 0
-2518 870 0
-9364 -870 2518 0
-2519 9364 0
-2519 874 0
-9364 -874 2519 0
-2520 9364 0
-2520 877 0
-9364 -877 2520 0
-2521 9364 0
-2521 880 0
-9364 -880 2521 0
-2522 9364 0
-2522 881 0
-9364 -881 2522 0
-2523 9365 0
-2523 691 0
-9365 -691 2523 0
-2524 9365 0
-2524 710 0
-9365 -710 2524 0
-2525 9365 0
-2525 728 0
-9365 -728 2525 0
-2526 9365 0
-2526 745 0
-9365 -745 2526 0
-2527 9365 0
-2527 761 0
-9365 -761 2527 0
-2528 9365 0
-2528 776 0
-9365 -776 2528 0
-2529 9365 0
-2529 790 0
-9365 -790 2529 0
-2530 9365 0
-2530 803 0
-9365 -803 2530 0
-2531 9365 0
-2531 815 0
-9365 -815 2531 0
-2532 9365 0
-2532 826 0
-9365 -826 2532 0
-2533 9365 0
-2533 836 0
-9365 -836 2533 0
-2534 9365 0
-2534 845 0
-9365 -845 2534 0
-2535 9365 0
-2535 853 0
-9365 -853 2535 0
-2536 9365 0
-2536 860 0
-9365 -860 2536 0
-2537 9365 0
-2537 866 0
-9365 -866 2537 0
-2538 9365 0
-2538 871 0
-9365 -871 2538 0
-2539 9365 0
-2539 875 0
-9365 -875 2539 0
-2540 9365 0
-2540 878 0
-9365 -878 2540 0
-2541 9365 0
-2541 880 0
-9365 -880 2541 0
-2542 9365 0
-2542 882 0
-9365 -882 2542 0
-2543 9366 0
-2543 692 0
-9366 -692 2543 0
-2544 9366 0
-2544 711 0
-9366 -711 2544 0
-2545 9366 0
-2545 729 0
-9366 -729 2545 0
-2546 9366 0
-2546 746 0
-9366 -746 2546 0
-2547 9366 0
-2547 762 0
-9366 -762 2547 0
-2548 9366 0
-2548 777 0
-9366 -777 2548 0
-2549 9366 0
-2549 791 0
-9366 -791 2549 0
-2550 9366 0
-2550 804 0
-9366 -804 2550 0
-2551 9366 0
-2551 816 0
-9366 -816 2551 0
-2552 9366 0
-2552 827 0
-9366 -827 2552 0
-2553 9366 0
-2553 837 0
-9366 -837 2553 0
-2554 9366 0
-2554 846 0
-9366 -846 2554 0
-2555 9366 0
-2555 854 0
-9366 -854 2555 0
-2556 9366 0
-2556 861 0
-9366 -861 2556 0
-2557 9366 0
-2557 867 0
-9366 -867 2557 0
-2558 9366 0
-2558 872 0
-9366 -872 2558 0
-2559 9366 0
-2559 876 0
-9366 -876 2559 0
-2560 9366 0
-2560 879 0
-9366 -879 2560 0
-2561 9366 0
-2561 881 0
-9366 -881 2561 0
-2562 9366 0
-2562 882 0
-9366 -882 2562 0
-2563 9367 0
-2563 673 0
-9367 -673 2563 0
-2564 9367 0
-2564 674 0
-9367 -674 2564 0
-2565 9367 0
-2565 675 0
-9367 -675 2565 0
-2566 9367 0
-2566 676 0
-9367 -676 2566 0
-2567 9367 0
-2567 677 0
-9367 -677 2567 0
-2568 9367 0
-2568 678 0
-9367 -678 2568 0
-2569 9367 0
-2569 679 0
-9367 -679 2569 0
-2570 9367 0
-2570 680 0
-9367 -680 2570 0
-2571 9367 0
-2571 681 0
-9367 -681 2571 0
-2572 9367 0
-2572 682 0
-9367 -682 2572 0
-2573 9367 0
-2573 683 0
-9367 -683 2573 0
-2574 9367 0
-2574 684 0
-9367 -684 2574 0
-2575 9367 0
-2575 685 0
-9367 -685 2575 0
-2576 9367 0
-2576 686 0
-9367 -686 2576 0
-2577 9367 0
-2577 687 0
-9367 -687 2577 0
-2578 9367 0
-2578 688 0
-9367 -688 2578 0
-2579 9367 0
-2579 689 0
-9367 -689 2579 0
-2580 9367 0
-2580 690 0
-9367 -690 2580 0
-2581 9367 0
-2581 691 0
-9367 -691 2581 0
-2582 9367 0
-2582 692 0
-9367 -692 2582 0
-2583 9368 0
-2583 673 0
-9368 -673 2583 0
-2584 9368 0
-2584 693 0
-9368 -693 2584 0
-2585 9368 0
-2585 694 0
-9368 -694 2585 0
-2586 9368 0
-2586 695 0
-9368 -695 2586 0
-2587 9368 0
-2587 696 0
-9368 -696 2587 0
-2588 9368 0
-2588 697 0
-9368 -697 2588 0
-2589 9368 0
-2589 698 0
-9368 -698 2589 0
-2590 9368 0
-2590 699 0
-9368 -699 2590 0
-2591 9368 0
-2591 700 0
-9368 -700 2591 0
-2592 9368 0
-2592 701 0
-9368 -701 2592 0
-2593 9368 0
-2593 702 0
-9368 -702 2593 0
-2594 9368 0
-2594 703 0
-9368 -703 2594 0
-2595 9368 0
-2595 704 0
-9368 -704 2595 0
-2596 9368 0
-2596 705 0
-9368 -705 2596 0
-2597 9368 0
-2597 706 0
-9368 -706 2597 0
-2598 9368 0
-2598 707 0
-9368 -707 2598 0
-2599 9368 0
-2599 708 0
-9368 -708 2599 0
-2600 9368 0
-2600 709 0
-9368 -709 2600 0
-2601 9368 0
-2601 710 0
-9368 -710 2601 0
-2602 9368 0
-2602 711 0
-9368 -711 2602 0
-2603 9369 0
-2603 674 0
-9369 -674 2603 0
-2604 9369 0
-2604 693 0
-9369 -693 2604 0
-2605 9369 0
-2605 712 0
-9369 -712 2605 0
-2606 9369 0
-2606 713 0
-9369 -713 2606 0
-2607 9369 0
-2607 714 0
-9369 -714 2607 0
-2608 9369 0
-2608 715 0
-9369 -715 2608 0
-2609 9369 0
-2609 716 0
-9369 -716 2609 0
-2610 9369 0
-2610 717 0
-9369 -717 2610 0
-2611 9369 0
-2611 718 0
-9369 -718 2611 0
-2612 9369 0
-2612 719 0
-9369 -719 2612 0
-2613 9369 0
-2613 720 0
-9369 -720 2613 0
-2614 9369 0
-2614 721 0
-9369 -721 2614 0
-2615 9369 0
-2615 722 0
-9369 -722 2615 0
-2616 9369 0
-2616 723 0
-9369 -723 2616 0
-2617 9369 0
-2617 724 0
-9369 -724 2617 0
-2618 9369 0
-2618 725 0
-9369 -725 2618 0
-2619 9369 0
-2619 726 0
-9369 -726 2619 0
-2620 9369 0
-2620 727 0
-9369 -727 2620 0
-2621 9369 0
-2621 728 0
-9369 -728 2621 0
-2622 9369 0
-2622 729 0
-9369 -729 2622 0
-2623 9370 0
-2623 675 0
-9370 -675 2623 0
-2624 9370 0
-2624 694 0
-9370 -694 2624 0
-2625 9370 0
-2625 712 0
-9370 -712 2625 0
-2626 9370 0
-2626 730 0
-9370 -730 2626 0
-2627 9370 0
-2627 731 0
-9370 -731 2627 0
-2628 9370 0
-2628 732 0
-9370 -732 2628 0
-2629 9370 0
-2629 733 0
-9370 -733 2629 0
-2630 9370 0
-2630 734 0
-9370 -734 2630 0
-2631 9370 0
-2631 735 0
-9370 -735 2631 0
-2632 9370 0
-2632 736 0
-9370 -736 2632 0
-2633 9370 0
-2633 737 0
-9370 -737 2633 0
-2634 9370 0
-2634 738 0
-9370 -738 2634 0
-2635 9370 0
-2635 739 0
-9370 -739 2635 0
-2636 9370 0
-2636 740 0
-9370 -740 2636 0
-2637 9370 0
-2637 741 0
-9370 -741 2637 0
-2638 9370 0
-2638 742 0
-9370 -742 2638 0
-2639 9370 0
-2639 743 0
-9370 -743 2639 0
-2640 9370 0
-2640 744 0
-9370 -744 2640 0
-2641 9370 0
-2641 745 0
-9370 -745 2641 0
-2642 9370 0
-2642 746 0
-9370 -746 2642 0
-2643 9371 0
-2643 676 0
-9371 -676 2643 0
-2644 9371 0
-2644 695 0
-9371 -695 2644 0
-2645 9371 0
-2645 713 0
-9371 -713 2645 0
-2646 9371 0
-2646 730 0
-9371 -730 2646 0
-2647 9371 0
-2647 747 0
-9371 -747 2647 0
-2648 9371 0
-2648 748 0
-9371 -748 2648 0
-2649 9371 0
-2649 749 0
-9371 -749 2649 0
-2650 9371 0
-2650 750 0
-9371 -750 2650 0
-2651 9371 0
-2651 751 0
-9371 -751 2651 0
-2652 9371 0
-2652 752 0
-9371 -752 2652 0
-2653 9371 0
-2653 753 0
-9371 -753 2653 0
-2654 9371 0
-2654 754 0
-9371 -754 2654 0
-2655 9371 0
-2655 755 0
-9371 -755 2655 0
-2656 9371 0
-2656 756 0
-9371 -756 2656 0
-2657 9371 0
-2657 757 0
-9371 -757 2657 0
-2658 9371 0
-2658 758 0
-9371 -758 2658 0
-2659 9371 0
-2659 759 0
-9371 -759 2659 0
-2660 9371 0
-2660 760 0
-9371 -760 2660 0
-2661 9371 0
-2661 761 0
-9371 -761 2661 0
-2662 9371 0
-2662 762 0
-9371 -762 2662 0
-2663 9372 0
-2663 677 0
-9372 -677 2663 0
-2664 9372 0
-2664 696 0
-9372 -696 2664 0
-2665 9372 0
-2665 714 0
-9372 -714 2665 0
-2666 9372 0
-2666 731 0
-9372 -731 2666 0
-2667 9372 0
-2667 747 0
-9372 -747 2667 0
-2668 9372 0
-2668 763 0
-9372 -763 2668 0
-2669 9372 0
-2669 764 0
-9372 -764 2669 0
-2670 9372 0
-2670 765 0
-9372 -765 2670 0
-2671 9372 0
-2671 766 0
-9372 -766 2671 0
-2672 9372 0
-2672 767 0
-9372 -767 2672 0
-2673 9372 0
-2673 768 0
-9372 -768 2673 0
-2674 9372 0
-2674 769 0
-9372 -769 2674 0
-2675 9372 0
-2675 770 0
-9372 -770 2675 0
-2676 9372 0
-2676 771 0
-9372 -771 2676 0
-2677 9372 0
-2677 772 0
-9372 -772 2677 0
-2678 9372 0
-2678 773 0
-9372 -773 2678 0
-2679 9372 0
-2679 774 0
-9372 -774 2679 0
-2680 9372 0
-2680 775 0
-9372 -775 2680 0
-2681 9372 0
-2681 776 0
-9372 -776 2681 0
-2682 9372 0
-2682 777 0
-9372 -777 2682 0
-2683 9373 0
-2683 678 0
-9373 -678 2683 0
-2684 9373 0
-2684 697 0
-9373 -697 2684 0
-2685 9373 0
-2685 715 0
-9373 -715 2685 0
-2686 9373 0
-2686 732 0
-9373 -732 2686 0
-2687 9373 0
-2687 748 0
-9373 -748 2687 0
-2688 9373 0
-2688 763 0
-9373 -763 2688 0
-2689 9373 0
-2689 778 0
-9373 -778 2689 0
-2690 9373 0
-2690 779 0
-9373 -779 2690 0
-2691 9373 0
-2691 780 0
-9373 -780 2691 0
-2692 9373 0
-2692 781 0
-9373 -781 2692 0
-2693 9373 0
-2693 782 0
-9373 -782 2693 0
-2694 9373 0
-2694 783 0
-9373 -783 2694 0
-2695 9373 0
-2695 784 0
-9373 -784 2695 0
-2696 9373 0
-2696 785 0
-9373 -785 2696 0
-2697 9373 0
-2697 786 0
-9373 -786 2697 0
-2698 9373 0
-2698 787 0
-9373 -787 2698 0
-2699 9373 0
-2699 788 0
-9373 -788 2699 0
-2700 9373 0
-2700 789 0
-9373 -789 2700 0
-2701 9373 0
-2701 790 0
-9373 -790 2701 0
-2702 9373 0
-2702 791 0
-9373 -791 2702 0
-2703 9374 0
-2703 679 0
-9374 -679 2703 0
-2704 9374 0
-2704 698 0
-9374 -698 2704 0
-2705 9374 0
-2705 716 0
-9374 -716 2705 0
-2706 9374 0
-2706 733 0
-9374 -733 2706 0
-2707 9374 0
-2707 749 0
-9374 -749 2707 0
-2708 9374 0
-2708 764 0
-9374 -764 2708 0
-2709 9374 0
-2709 778 0
-9374 -778 2709 0
-2710 9374 0
-2710 792 0
-9374 -792 2710 0
-2711 9374 0
-2711 793 0
-9374 -793 2711 0
-2712 9374 0
-2712 794 0
-9374 -794 2712 0
-2713 9374 0
-2713 795 0
-9374 -795 2713 0
-2714 9374 0
-2714 796 0
-9374 -796 2714 0
-2715 9374 0
-2715 797 0
-9374 -797 2715 0
-2716 9374 0
-2716 798 0
-9374 -798 2716 0
-2717 9374 0
-2717 799 0
-9374 -799 2717 0
-2718 9374 0
-2718 800 0
-9374 -800 2718 0
-2719 9374 0
-2719 801 0
-9374 -801 2719 0
-2720 9374 0
-2720 802 0
-9374 -802 2720 0
-2721 9374 0
-2721 803 0
-9374 -803 2721 0
-2722 9374 0
-2722 804 0
-9374 -804 2722 0
-2723 9375 0
-2723 680 0
-9375 -680 2723 0
-2724 9375 0
-2724 699 0
-9375 -699 2724 0
-2725 9375 0
-2725 717 0
-9375 -717 2725 0
-2726 9375 0
-2726 734 0
-9375 -734 2726 0
-2727 9375 0
-2727 750 0
-9375 -750 2727 0
-2728 9375 0
-2728 765 0
-9375 -765 2728 0
-2729 9375 0
-2729 779 0
-9375 -779 2729 0
-2730 9375 0
-2730 792 0
-9375 -792 2730 0
-2731 9375 0
-2731 805 0
-9375 -805 2731 0
-2732 9375 0
-2732 806 0
-9375 -806 2732 0
-2733 9375 0
-2733 807 0
-9375 -807 2733 0
-2734 9375 0
-2734 808 0
-9375 -808 2734 0
-2735 9375 0
-2735 809 0
-9375 -809 2735 0
-2736 9375 0
-2736 810 0
-9375 -810 2736 0
-2737 9375 0
-2737 811 0
-9375 -811 2737 0
-2738 9375 0
-2738 812 0
-9375 -812 2738 0
-2739 9375 0
-2739 813 0
-9375 -813 2739 0
-2740 9375 0
-2740 814 0
-9375 -814 2740 0
-2741 9375 0
-2741 815 0
-9375 -815 2741 0
-2742 9375 0
-2742 816 0
-9375 -816 2742 0
-2743 9376 0
-2743 681 0
-9376 -681 2743 0
-2744 9376 0
-2744 700 0
-9376 -700 2744 0
-2745 9376 0
-2745 718 0
-9376 -718 2745 0
-2746 9376 0
-2746 735 0
-9376 -735 2746 0
-2747 9376 0
-2747 751 0
-9376 -751 2747 0
-2748 9376 0
-2748 766 0
-9376 -766 2748 0
-2749 9376 0
-2749 780 0
-9376 -780 2749 0
-2750 9376 0
-2750 793 0
-9376 -793 2750 0
-2751 9376 0
-2751 805 0
-9376 -805 2751 0
-2752 9376 0
-2752 817 0
-9376 -817 2752 0
-2753 9376 0
-2753 818 0
-9376 -818 2753 0
-2754 9376 0
-2754 819 0
-9376 -819 2754 0
-2755 9376 0
-2755 820 0
-9376 -820 2755 0
-2756 9376 0
-2756 821 0
-9376 -821 2756 0
-2757 9376 0
-2757 822 0
-9376 -822 2757 0
-2758 9376 0
-2758 823 0
-9376 -823 2758 0
-2759 9376 0
-2759 824 0
-9376 -824 2759 0
-2760 9376 0
-2760 825 0
-9376 -825 2760 0
-2761 9376 0
-2761 826 0
-9376 -826 2761 0
-2762 9376 0
-2762 827 0
-9376 -827 2762 0
-2763 9377 0
-2763 682 0
-9377 -682 2763 0
-2764 9377 0
-2764 701 0
-9377 -701 2764 0
-2765 9377 0
-2765 719 0
-9377 -719 2765 0
-2766 9377 0
-2766 736 0
-9377 -736 2766 0
-2767 9377 0
-2767 752 0
-9377 -752 2767 0
-2768 9377 0
-2768 767 0
-9377 -767 2768 0
-2769 9377 0
-2769 781 0
-9377 -781 2769 0
-2770 9377 0
-2770 794 0
-9377 -794 2770 0
-2771 9377 0
-2771 806 0
-9377 -806 2771 0
-2772 9377 0
-2772 817 0
-9377 -817 2772 0
-2773 9377 0
-2773 828 0
-9377 -828 2773 0
-2774 9377 0
-2774 829 0
-9377 -829 2774 0
-2775 9377 0
-2775 830 0
-9377 -830 2775 0
-2776 9377 0
-2776 831 0
-9377 -831 2776 0
-2777 9377 0
-2777 832 0
-9377 -832 2777 0
-2778 9377 0
-2778 833 0
-9377 -833 2778 0
-2779 9377 0
-2779 834 0
-9377 -834 2779 0
-2780 9377 0
-2780 835 0
-9377 -835 2780 0
-2781 9377 0
-2781 836 0
-9377 -836 2781 0
-2782 9377 0
-2782 837 0
-9377 -837 2782 0
-2783 9378 0
-2783 683 0
-9378 -683 2783 0
-2784 9378 0
-2784 702 0
-9378 -702 2784 0
-2785 9378 0
-2785 720 0
-9378 -720 2785 0
-2786 9378 0
-2786 737 0
-9378 -737 2786 0
-2787 9378 0
-2787 753 0
-9378 -753 2787 0
-2788 9378 0
-2788 768 0
-9378 -768 2788 0
-2789 9378 0
-2789 782 0
-9378 -782 2789 0
-2790 9378 0
-2790 795 0
-9378 -795 2790 0
-2791 9378 0
-2791 807 0
-9378 -807 2791 0
-2792 9378 0
-2792 818 0
-9378 -818 2792 0
-2793 9378 0
-2793 828 0
-9378 -828 2793 0
-2794 9378 0
-2794 838 0
-9378 -838 2794 0
-2795 9378 0
-2795 839 0
-9378 -839 2795 0
-2796 9378 0
-2796 840 0
-9378 -840 2796 0
-2797 9378 0
-2797 841 0
-9378 -841 2797 0
-2798 9378 0
-2798 842 0
-9378 -842 2798 0
-2799 9378 0
-2799 843 0
-9378 -843 2799 0
-2800 9378 0
-2800 844 0
-9378 -844 2800 0
-2801 9378 0
-2801 845 0
-9378 -845 2801 0
-2802 9378 0
-2802 846 0
-9378 -846 2802 0
-2803 9379 0
-2803 684 0
-9379 -684 2803 0
-2804 9379 0
-2804 703 0
-9379 -703 2804 0
-2805 9379 0
-2805 721 0
-9379 -721 2805 0
-2806 9379 0
-2806 738 0
-9379 -738 2806 0
-2807 9379 0
-2807 754 0
-9379 -754 2807 0
-2808 9379 0
-2808 769 0
-9379 -769 2808 0
-2809 9379 0
-2809 783 0
-9379 -783 2809 0
-2810 9379 0
-2810 796 0
-9379 -796 2810 0
-2811 9379 0
-2811 808 0
-9379 -808 2811 0
-2812 9379 0
-2812 819 0
-9379 -819 2812 0
-2813 9379 0
-2813 829 0
-9379 -829 2813 0
-2814 9379 0
-2814 838 0
-9379 -838 2814 0
-2815 9379 0
-2815 847 0
-9379 -847 2815 0
-2816 9379 0
-2816 848 0
-9379 -848 2816 0
-2817 9379 0
-2817 849 0
-9379 -849 2817 0
-2818 9379 0
-2818 850 0
-9379 -850 2818 0
-2819 9379 0
-2819 851 0
-9379 -851 2819 0
-2820 9379 0
-2820 852 0
-9379 -852 2820 0
-2821 9379 0
-2821 853 0
-9379 -853 2821 0
-2822 9379 0
-2822 854 0
-9379 -854 2822 0
-2823 9380 0
-2823 685 0
-9380 -685 2823 0
-2824 9380 0
-2824 704 0
-9380 -704 2824 0
-2825 9380 0
-2825 722 0
-9380 -722 2825 0
-2826 9380 0
-2826 739 0
-9380 -739 2826 0
-2827 9380 0
-2827 755 0
-9380 -755 2827 0
-2828 9380 0
-2828 770 0
-9380 -770 2828 0
-2829 9380 0
-2829 784 0
-9380 -784 2829 0
-2830 9380 0
-2830 797 0
-9380 -797 2830 0
-2831 9380 0
-2831 809 0
-9380 -809 2831 0
-2832 9380 0
-2832 820 0
-9380 -820 2832 0
-2833 9380 0
-2833 830 0
-9380 -830 2833 0
-2834 9380 0
-2834 839 0
-9380 -839 2834 0
-2835 9380 0
-2835 847 0
-9380 -847 2835 0
-2836 9380 0
-2836 855 0
-9380 -855 2836 0
-2837 9380 0
-2837 856 0
-9380 -856 2837 0
-2838 9380 0
-2838 857 0
-9380 -857 2838 0
-2839 9380 0
-2839 858 0
-9380 -858 2839 0
-2840 9380 0
-2840 859 0
-9380 -859 2840 0
-2841 9380 0
-2841 860 0
-9380 -860 2841 0
-2842 9380 0
-2842 861 0
-9380 -861 2842 0
-2843 9381 0
-2843 686 0
-9381 -686 2843 0
-2844 9381 0
-2844 705 0
-9381 -705 2844 0
-2845 9381 0
-2845 723 0
-9381 -723 2845 0
-2846 9381 0
-2846 740 0
-9381 -740 2846 0
-2847 9381 0
-2847 756 0
-9381 -756 2847 0
-2848 9381 0
-2848 771 0
-9381 -771 2848 0
-2849 9381 0
-2849 785 0
-9381 -785 2849 0
-2850 9381 0
-2850 798 0
-9381 -798 2850 0
-2851 9381 0
-2851 810 0
-9381 -810 2851 0
-2852 9381 0
-2852 821 0
-9381 -821 2852 0
-2853 9381 0
-2853 831 0
-9381 -831 2853 0
-2854 9381 0
-2854 840 0
-9381 -840 2854 0
-2855 9381 0
-2855 848 0
-9381 -848 2855 0
-2856 9381 0
-2856 855 0
-9381 -855 2856 0
-2857 9381 0
-2857 862 0
-9381 -862 2857 0
-2858 9381 0
-2858 863 0
-9381 -863 2858 0
-2859 9381 0
-2859 864 0
-9381 -864 2859 0
-2860 9381 0
-2860 865 0
-9381 -865 2860 0
-2861 9381 0
-2861 866 0
-9381 -866 2861 0
-2862 9381 0
-2862 867 0
-9381 -867 2862 0
-2863 9382 0
-2863 687 0
-9382 -687 2863 0
-2864 9382 0
-2864 706 0
-9382 -706 2864 0
-2865 9382 0
-2865 724 0
-9382 -724 2865 0
-2866 9382 0
-2866 741 0
-9382 -741 2866 0
-2867 9382 0
-2867 757 0
-9382 -757 2867 0
-2868 9382 0
-2868 772 0
-9382 -772 2868 0
-2869 9382 0
-2869 786 0
-9382 -786 2869 0
-2870 9382 0
-2870 799 0
-9382 -799 2870 0
-2871 9382 0
-2871 811 0
-9382 -811 2871 0
-2872 9382 0
-2872 822 0
-9382 -822 2872 0
-2873 9382 0
-2873 832 0
-9382 -832 2873 0
-2874 9382 0
-2874 841 0
-9382 -841 2874 0
-2875 9382 0
-2875 849 0
-9382 -849 2875 0
-2876 9382 0
-2876 856 0
-9382 -856 2876 0
-2877 9382 0
-2877 862 0
-9382 -862 2877 0
-2878 9382 0
-2878 868 0
-9382 -868 2878 0
-2879 9382 0
-2879 869 0
-9382 -869 2879 0
-2880 9382 0
-2880 870 0
-9382 -870 2880 0
-2881 9382 0
-2881 871 0
-9382 -871 2881 0
-2882 9382 0
-2882 872 0
-9382 -872 2882 0
-2883 9383 0
-2883 688 0
-9383 -688 2883 0
-2884 9383 0
-2884 707 0
-9383 -707 2884 0
-2885 9383 0
-2885 725 0
-9383 -725 2885 0
-2886 9383 0
-2886 742 0
-9383 -742 2886 0
-2887 9383 0
-2887 758 0
-9383 -758 2887 0
-2888 9383 0
-2888 773 0
-9383 -773 2888 0
-2889 9383 0
-2889 787 0
-9383 -787 2889 0
-2890 9383 0
-2890 800 0
-9383 -800 2890 0
-2891 9383 0
-2891 812 0
-9383 -812 2891 0
-2892 9383 0
-2892 823 0
-9383 -823 2892 0
-2893 9383 0
-2893 833 0
-9383 -833 2893 0
-2894 9383 0
-2894 842 0
-9383 -842 2894 0
-2895 9383 0
-2895 850 0
-9383 -850 2895 0
-2896 9383 0
-2896 857 0
-9383 -857 2896 0
-2897 9383 0
-2897 863 0
-9383 -863 2897 0
-2898 9383 0
-2898 868 0
-9383 -868 2898 0
-2899 9383 0
-2899 873 0
-9383 -873 2899 0
-2900 9383 0
-2900 874 0
-9383 -874 2900 0
-2901 9383 0
-2901 875 0
-9383 -875 2901 0
-2902 9383 0
-2902 876 0
-9383 -876 2902 0
-2903 9384 0
-2903 689 0
-9384 -689 2903 0
-2904 9384 0
-2904 708 0
-9384 -708 2904 0
-2905 9384 0
-2905 726 0
-9384 -726 2905 0
-2906 9384 0
-2906 743 0
-9384 -743 2906 0
-2907 9384 0
-2907 759 0
-9384 -759 2907 0
-2908 9384 0
-2908 774 0
-9384 -774 2908 0
-2909 9384 0
-2909 788 0
-9384 -788 2909 0
-2910 9384 0
-2910 801 0
-9384 -801 2910 0
-2911 9384 0
-2911 813 0
-9384 -813 2911 0
-2912 9384 0
-2912 824 0
-9384 -824 2912 0
-2913 9384 0
-2913 834 0
-9384 -834 2913 0
-2914 9384 0
-2914 843 0
-9384 -843 2914 0
-2915 9384 0
-2915 851 0
-9384 -851 2915 0
-2916 9384 0
-2916 858 0
-9384 -858 2916 0
-2917 9384 0
-2917 864 0
-9384 -864 2917 0
-2918 9384 0
-2918 869 0
-9384 -869 2918 0
-2919 9384 0
-2919 873 0
-9384 -873 2919 0
-2920 9384 0
-2920 877 0
-9384 -877 2920 0
-2921 9384 0
-2921 878 0
-9384 -878 2921 0
-2922 9384 0
-2922 879 0
-9384 -879 2922 0
-2923 9385 0
-2923 690 0
-9385 -690 2923 0
-2924 9385 0
-2924 709 0
-9385 -709 2924 0
-2925 9385 0
-2925 727 0
-9385 -727 2925 0
-2926 9385 0
-2926 744 0
-9385 -744 2926 0
-2927 9385 0
-2927 760 0
-9385 -760 2927 0
-2928 9385 0
-2928 775 0
-9385 -775 2928 0
-2929 9385 0
-2929 789 0
-9385 -789 2929 0
-2930 9385 0
-2930 802 0
-9385 -802 2930 0
-2931 9385 0
-2931 814 0
-9385 -814 2931 0
-2932 9385 0
-2932 825 0
-9385 -825 2932 0
-2933 9385 0
-2933 835 0
-9385 -835 2933 0
-2934 9385 0
-2934 844 0
-9385 -844 2934 0
-2935 9385 0
-2935 852 0
-9385 -852 2935 0
-2936 9385 0
-2936 859 0
-9385 -859 2936 0
-2937 9385 0
-2937 865 0
-9385 -865 2937 0
-2938 9385 0
-2938 870 0
-9385 -870 2938 0
-2939 9385 0
-2939 874 0
-9385 -874 2939 0
-2940 9385 0
-2940 877 0
-9385 -877 2940 0
-2941 9385 0
-2941 880 0
-9385 -880 2941 0
-2942 9385 0
-2942 881 0
-9385 -881 2942 0
-2943 9386 0
-2943 691 0
-9386 -691 2943 0
-2944 9386 0
-2944 710 0
-9386 -710 2944 0
-2945 9386 0
-2945 728 0
-9386 -728 2945 0
-2946 9386 0
-2946 745 0
-9386 -745 2946 0
-2947 9386 0
-2947 761 0
-9386 -761 2947 0
-2948 9386 0
-2948 776 0
-9386 -776 2948 0
-2949 9386 0
-2949 790 0
-9386 -790 2949 0
-2950 9386 0
-2950 803 0
-9386 -803 2950 0
-2951 9386 0
-2951 815 0
-9386 -815 2951 0
-2952 9386 0
-2952 826 0
-9386 -826 2952 0
-2953 9386 0
-2953 836 0
-9386 -836 2953 0
-2954 9386 0
-2954 845 0
-9386 -845 2954 0
-2955 9386 0
-2955 853 0
-9386 -853 2955 0
-2956 9386 0
-2956 860 0
-9386 -860 2956 0
-2957 9386 0
-2957 866 0
-9386 -866 2957 0
-2958 9386 0
-2958 871 0
-9386 -871 2958 0
-2959 9386 0
-2959 875 0
-9386 -875 2959 0
-2960 9386 0
-2960 878 0
-9386 -878 2960 0
-2961 9386 0
-2961 880 0
-9386 -880 2961 0
-2962 9386 0
-2962 882 0
-9386 -882 2962 0
-2963 9387 0
-2963 692 0
-9387 -692 2963 0
-2964 9387 0
-2964 711 0
-9387 -711 2964 0
-2965 9387 0
-2965 729 0
-9387 -729 2965 0
-2966 9387 0
-2966 746 0
-9387 -746 2966 0
-2967 9387 0
-2967 762 0
-9387 -762 2967 0
-2968 9387 0
-2968 777 0
-9387 -777 2968 0
-2969 9387 0
-2969 791 0
-9387 -791 2969 0
-2970 9387 0
-2970 804 0
-9387 -804 2970 0
-2971 9387 0
-2971 816 0
-9387 -816 2971 0
-2972 9387 0
-2972 827 0
-9387 -827 2972 0
-2973 9387 0
-2973 837 0
-9387 -837 2973 0
-2974 9387 0
-2974 846 0
-9387 -846 2974 0
-2975 9387 0
-2975 854 0
-9387 -854 2975 0
-2976 9387 0
-2976 861 0
-9387 -861 2976 0
-2977 9387 0
-2977 867 0
-9387 -867 2977 0
-2978 9387 0
-2978 872 0
-9387 -872 2978 0
-2979 9387 0
-2979 876 0
-9387 -876 2979 0
-2980 9387 0
-2980 879 0
-9387 -879 2980 0
-2981 9387 0
-2981 881 0
-9387 -881 2981 0
-2982 9387 0
-2982 882 0
-9387 -882 2982 0
-2983 9388 0
-2983 673 0
-9388 -673 2983 0
-2984 9388 0
-2984 674 0
-9388 -674 2984 0
-2985 9388 0
-2985 675 0
-9388 -675 2985 0
-2986 9388 0
-2986 676 0
-9388 -676 2986 0
-2987 9388 0
-2987 677 0
-9388 -677 2987 0
-2988 9388 0
-2988 678 0
-9388 -678 2988 0
-2989 9388 0
-2989 679 0
-9388 -679 2989 0
-2990 9388 0
-2990 680 0
-9388 -680 2990 0
-2991 9388 0
-2991 681 0
-9388 -681 2991 0
-2992 9388 0
-2992 682 0
-9388 -682 2992 0
-2993 9388 0
-2993 683 0
-9388 -683 2993 0
-2994 9388 0
-2994 684 0
-9388 -684 2994 0
-2995 9388 0
-2995 685 0
-9388 -685 2995 0
-2996 9388 0
-2996 686 0
-9388 -686 2996 0
-2997 9388 0
-2997 687 0
-9388 -687 2997 0
-2998 9388 0
-2998 688 0
-9388 -688 2998 0
-2999 9388 0
-2999 689 0
-9388 -689 2999 0
-3000 9388 0
-3000 690 0
-9388 -690 3000 0
-3001 9388 0
-3001 691 0
-9388 -691 3001 0
-3002 9388 0
-3002 692 0
-9388 -692 3002 0
-3003 9389 0
-3003 673 0
-9389 -673 3003 0
-3004 9389 0
-3004 693 0
-9389 -693 3004 0
-3005 9389 0
-3005 694 0
-9389 -694 3005 0
-3006 9389 0
-3006 695 0
-9389 -695 3006 0
-3007 9389 0
-3007 696 0
-9389 -696 3007 0
-3008 9389 0
-3008 697 0
-9389 -697 3008 0
-3009 9389 0
-3009 698 0
-9389 -698 3009 0
-3010 9389 0
-3010 699 0
-9389 -699 3010 0
-3011 9389 0
-3011 700 0
-9389 -700 3011 0
-3012 9389 0
-3012 701 0
-9389 -701 3012 0
-3013 9389 0
-3013 702 0
-9389 -702 3013 0
-3014 9389 0
-3014 703 0
-9389 -703 3014 0
-3015 9389 0
-3015 704 0
-9389 -704 3015 0
-3016 9389 0
-3016 705 0
-9389 -705 3016 0
-3017 9389 0
-3017 706 0
-9389 -706 3017 0
-3018 9389 0
-3018 707 0
-9389 -707 3018 0
-3019 9389 0
-3019 708 0
-9389 -708 3019 0
-3020 9389 0
-3020 709 0
-9389 -709 3020 0
-3021 9389 0
-3021 710 0
-9389 -710 3021 0
-3022 9389 0
-3022 711 0
-9389 -711 3022 0
-3023 9390 0
-3023 674 0
-9390 -674 3023 0
-3024 9390 0
-3024 693 0
-9390 -693 3024 0
-3025 9390 0
-3025 712 0
-9390 -712 3025 0
-3026 9390 0
-3026 713 0
-9390 -713 3026 0
-3027 9390 0
-3027 714 0
-9390 -714 3027 0
-3028 9390 0
-3028 715 0
-9390 -715 3028 0
-3029 9390 0
-3029 716 0
-9390 -716 3029 0
-3030 9390 0
-3030 717 0
-9390 -717 3030 0
-3031 9390 0
-3031 718 0
-9390 -718 3031 0
-3032 9390 0
-3032 719 0
-9390 -719 3032 0
-3033 9390 0
-3033 720 0
-9390 -720 3033 0
-3034 9390 0
-3034 721 0
-9390 -721 3034 0
-3035 9390 0
-3035 722 0
-9390 -722 3035 0
-3036 9390 0
-3036 723 0
-9390 -723 3036 0
-3037 9390 0
-3037 724 0
-9390 -724 3037 0
-3038 9390 0
-3038 725 0
-9390 -725 3038 0
-3039 9390 0
-3039 726 0
-9390 -726 3039 0
-3040 9390 0
-3040 727 0
-9390 -727 3040 0
-3041 9390 0
-3041 728 0
-9390 -728 3041 0
-3042 9390 0
-3042 729 0
-9390 -729 3042 0
-3043 9391 0
-3043 675 0
-9391 -675 3043 0
-3044 9391 0
-3044 694 0
-9391 -694 3044 0
-3045 9391 0
-3045 712 0
-9391 -712 3045 0
-3046 9391 0
-3046 730 0
-9391 -730 3046 0
-3047 9391 0
-3047 731 0
-9391 -731 3047 0
-3048 9391 0
-3048 732 0
-9391 -732 3048 0
-3049 9391 0
-3049 733 0
-9391 -733 3049 0
-3050 9391 0
-3050 734 0
-9391 -734 3050 0
-3051 9391 0
-3051 735 0
-9391 -735 3051 0
-3052 9391 0
-3052 736 0
-9391 -736 3052 0
-3053 9391 0
-3053 737 0
-9391 -737 3053 0
-3054 9391 0
-3054 738 0
-9391 -738 3054 0
-3055 9391 0
-3055 739 0
-9391 -739 3055 0
-3056 9391 0
-3056 740 0
-9391 -740 3056 0
-3057 9391 0
-3057 741 0
-9391 -741 3057 0
-3058 9391 0
-3058 742 0
-9391 -742 3058 0
-3059 9391 0
-3059 743 0
-9391 -743 3059 0
-3060 9391 0
-3060 744 0
-9391 -744 3060 0
-3061 9391 0
-3061 745 0
-9391 -745 3061 0
-3062 9391 0
-3062 746 0
-9391 -746 3062 0
-3063 9392 0
-3063 676 0
-9392 -676 3063 0
-3064 9392 0
-3064 695 0
-9392 -695 3064 0
-3065 9392 0
-3065 713 0
-9392 -713 3065 0
-3066 9392 0
-3066 730 0
-9392 -730 3066 0
-3067 9392 0
-3067 747 0
-9392 -747 3067 0
-3068 9392 0
-3068 748 0
-9392 -748 3068 0
-3069 9392 0
-3069 749 0
-9392 -749 3069 0
-3070 9392 0
-3070 750 0
-9392 -750 3070 0
-3071 9392 0
-3071 751 0
-9392 -751 3071 0
-3072 9392 0
-3072 752 0
-9392 -752 3072 0
-3073 9392 0
-3073 753 0
-9392 -753 3073 0
-3074 9392 0
-3074 754 0
-9392 -754 3074 0
-3075 9392 0
-3075 755 0
-9392 -755 3075 0
-3076 9392 0
-3076 756 0
-9392 -756 3076 0
-3077 9392 0
-3077 757 0
-9392 -757 3077 0
-3078 9392 0
-3078 758 0
-9392 -758 3078 0
-3079 9392 0
-3079 759 0
-9392 -759 3079 0
-3080 9392 0
-3080 760 0
-9392 -760 3080 0
-3081 9392 0
-3081 761 0
-9392 -761 3081 0
-3082 9392 0
-3082 762 0
-9392 -762 3082 0
-3083 9393 0
-3083 677 0
-9393 -677 3083 0
-3084 9393 0
-3084 696 0
-9393 -696 3084 0
-3085 9393 0
-3085 714 0
-9393 -714 3085 0
-3086 9393 0
-3086 731 0
-9393 -731 3086 0
-3087 9393 0
-3087 747 0
-9393 -747 3087 0
-3088 9393 0
-3088 763 0
-9393 -763 3088 0
-3089 9393 0
-3089 764 0
-9393 -764 3089 0
-3090 9393 0
-3090 765 0
-9393 -765 3090 0
-3091 9393 0
-3091 766 0
-9393 -766 3091 0
-3092 9393 0
-3092 767 0
-9393 -767 3092 0
-3093 9393 0
-3093 768 0
-9393 -768 3093 0
-3094 9393 0
-3094 769 0
-9393 -769 3094 0
-3095 9393 0
-3095 770 0
-9393 -770 3095 0
-3096 9393 0
-3096 771 0
-9393 -771 3096 0
-3097 9393 0
-3097 772 0
-9393 -772 3097 0
-3098 9393 0
-3098 773 0
-9393 -773 3098 0
-3099 9393 0
-3099 774 0
-9393 -774 3099 0
-3100 9393 0
-3100 775 0
-9393 -775 3100 0
-3101 9393 0
-3101 776 0
-9393 -776 3101 0
-3102 9393 0
-3102 777 0
-9393 -777 3102 0
-3103 9394 0
-3103 678 0
-9394 -678 3103 0
-3104 9394 0
-3104 697 0
-9394 -697 3104 0
-3105 9394 0
-3105 715 0
-9394 -715 3105 0
-3106 9394 0
-3106 732 0
-9394 -732 3106 0
-3107 9394 0
-3107 748 0
-9394 -748 3107 0
-3108 9394 0
-3108 763 0
-9394 -763 3108 0
-3109 9394 0
-3109 778 0
-9394 -778 3109 0
-3110 9394 0
-3110 779 0
-9394 -779 3110 0
-3111 9394 0
-3111 780 0
-9394 -780 3111 0
-3112 9394 0
-3112 781 0
-9394 -781 3112 0
-3113 9394 0
-3113 782 0
-9394 -782 3113 0
-3114 9394 0
-3114 783 0
-9394 -783 3114 0
-3115 9394 0
-3115 784 0
-9394 -784 3115 0
-3116 9394 0
-3116 785 0
-9394 -785 3116 0
-3117 9394 0
-3117 786 0
-9394 -786 3117 0
-3118 9394 0
-3118 787 0
-9394 -787 3118 0
-3119 9394 0
-3119 788 0
-9394 -788 3119 0
-3120 9394 0
-3120 789 0
-9394 -789 3120 0
-3121 9394 0
-3121 790 0
-9394 -790 3121 0
-3122 9394 0
-3122 791 0
-9394 -791 3122 0
-3123 9395 0
-3123 679 0
-9395 -679 3123 0
-3124 9395 0
-3124 698 0
-9395 -698 3124 0
-3125 9395 0
-3125 716 0
-9395 -716 3125 0
-3126 9395 0
-3126 733 0
-9395 -733 3126 0
-3127 9395 0
-3127 749 0
-9395 -749 3127 0
-3128 9395 0
-3128 764 0
-9395 -764 3128 0
-3129 9395 0
-3129 778 0
-9395 -778 3129 0
-3130 9395 0
-3130 792 0
-9395 -792 3130 0
-3131 9395 0
-3131 793 0
-9395 -793 3131 0
-3132 9395 0
-3132 794 0
-9395 -794 3132 0
-3133 9395 0
-3133 795 0
-9395 -795 3133 0
-3134 9395 0
-3134 796 0
-9395 -796 3134 0
-3135 9395 0
-3135 797 0
-9395 -797 3135 0
-3136 9395 0
-3136 798 0
-9395 -798 3136 0
-3137 9395 0
-3137 799 0
-9395 -799 3137 0
-3138 9395 0
-3138 800 0
-9395 -800 3138 0
-3139 9395 0
-3139 801 0
-9395 -801 3139 0
-3140 9395 0
-3140 802 0
-9395 -802 3140 0
-3141 9395 0
-3141 803 0
-9395 -803 3141 0
-3142 9395 0
-3142 804 0
-9395 -804 3142 0
-3143 9396 0
-3143 680 0
-9396 -680 3143 0
-3144 9396 0
-3144 699 0
-9396 -699 3144 0
-3145 9396 0
-3145 717 0
-9396 -717 3145 0
-3146 9396 0
-3146 734 0
-9396 -734 3146 0
-3147 9396 0
-3147 750 0
-9396 -750 3147 0
-3148 9396 0
-3148 765 0
-9396 -765 3148 0
-3149 9396 0
-3149 779 0
-9396 -779 3149 0
-3150 9396 0
-3150 792 0
-9396 -792 3150 0
-3151 9396 0
-3151 805 0
-9396 -805 3151 0
-3152 9396 0
-3152 806 0
-9396 -806 3152 0
-3153 9396 0
-3153 807 0
-9396 -807 3153 0
-3154 9396 0
-3154 808 0
-9396 -808 3154 0
-3155 9396 0
-3155 809 0
-9396 -809 3155 0
-3156 9396 0
-3156 810 0
-9396 -810 3156 0
-3157 9396 0
-3157 811 0
-9396 -811 3157 0
-3158 9396 0
-3158 812 0
-9396 -812 3158 0
-3159 9396 0
-3159 813 0
-9396 -813 3159 0
-3160 9396 0
-3160 814 0
-9396 -814 3160 0
-3161 9396 0
-3161 815 0
-9396 -815 3161 0
-3162 9396 0
-3162 816 0
-9396 -816 3162 0
-3163 9397 0
-3163 681 0
-9397 -681 3163 0
-3164 9397 0
-3164 700 0
-9397 -700 3164 0
-3165 9397 0
-3165 718 0
-9397 -718 3165 0
-3166 9397 0
-3166 735 0
-9397 -735 3166 0
-3167 9397 0
-3167 751 0
-9397 -751 3167 0
-3168 9397 0
-3168 766 0
-9397 -766 3168 0
-3169 9397 0
-3169 780 0
-9397 -780 3169 0
-3170 9397 0
-3170 793 0
-9397 -793 3170 0
-3171 9397 0
-3171 805 0
-9397 -805 3171 0
-3172 9397 0
-3172 817 0
-9397 -817 3172 0
-3173 9397 0
-3173 818 0
-9397 -818 3173 0
-3174 9397 0
-3174 819 0
-9397 -819 3174 0
-3175 9397 0
-3175 820 0
-9397 -820 3175 0
-3176 9397 0
-3176 821 0
-9397 -821 3176 0
-3177 9397 0
-3177 822 0
-9397 -822 3177 0
-3178 9397 0
-3178 823 0
-9397 -823 3178 0
-3179 9397 0
-3179 824 0
-9397 -824 3179 0
-3180 9397 0
-3180 825 0
-9397 -825 3180 0
-3181 9397 0
-3181 826 0
-9397 -826 3181 0
-3182 9397 0
-3182 827 0
-9397 -827 3182 0
-3183 9398 0
-3183 682 0
-9398 -682 3183 0
-3184 9398 0
-3184 701 0
-9398 -701 3184 0
-3185 9398 0
-3185 719 0
-9398 -719 3185 0
-3186 9398 0
-3186 736 0
-9398 -736 3186 0
-3187 9398 0
-3187 752 0
-9398 -752 3187 0
-3188 9398 0
-3188 767 0
-9398 -767 3188 0
-3189 9398 0
-3189 781 0
-9398 -781 3189 0
-3190 9398 0
-3190 794 0
-9398 -794 3190 0
-3191 9398 0
-3191 806 0
-9398 -806 3191 0
-3192 9398 0
-3192 817 0
-9398 -817 3192 0
-3193 9398 0
-3193 828 0
-9398 -828 3193 0
-3194 9398 0
-3194 829 0
-9398 -829 3194 0
-3195 9398 0
-3195 830 0
-9398 -830 3195 0
-3196 9398 0
-3196 831 0
-9398 -831 3196 0
-3197 9398 0
-3197 832 0
-9398 -832 3197 0
-3198 9398 0
-3198 833 0
-9398 -833 3198 0
-3199 9398 0
-3199 834 0
-9398 -834 3199 0
-3200 9398 0
-3200 835 0
-9398 -835 3200 0
-3201 9398 0
-3201 836 0
-9398 -836 3201 0
-3202 9398 0
-3202 837 0
-9398 -837 3202 0
-3203 9399 0
-3203 683 0
-9399 -683 3203 0
-3204 9399 0
-3204 702 0
-9399 -702 3204 0
-3205 9399 0
-3205 720 0
-9399 -720 3205 0
-3206 9399 0
-3206 737 0
-9399 -737 3206 0
-3207 9399 0
-3207 753 0
-9399 -753 3207 0
-3208 9399 0
-3208 768 0
-9399 -768 3208 0
-3209 9399 0
-3209 782 0
-9399 -782 3209 0
-3210 9399 0
-3210 795 0
-9399 -795 3210 0
-3211 9399 0
-3211 807 0
-9399 -807 3211 0
-3212 9399 0
-3212 818 0
-9399 -818 3212 0
-3213 9399 0
-3213 828 0
-9399 -828 3213 0
-3214 9399 0
-3214 838 0
-9399 -838 3214 0
-3215 9399 0
-3215 839 0
-9399 -839 3215 0
-3216 9399 0
-3216 840 0
-9399 -840 3216 0
-3217 9399 0
-3217 841 0
-9399 -841 3217 0
-3218 9399 0
-3218 842 0
-9399 -842 3218 0
-3219 9399 0
-3219 843 0
-9399 -843 3219 0
-3220 9399 0
-3220 844 0
-9399 -844 3220 0
-3221 9399 0
-3221 845 0
-9399 -845 3221 0
-3222 9399 0
-3222 846 0
-9399 -846 3222 0
-3223 9400 0
-3223 684 0
-9400 -684 3223 0
-3224 9400 0
-3224 703 0
-9400 -703 3224 0
-3225 9400 0
-3225 721 0
-9400 -721 3225 0
-3226 9400 0
-3226 738 0
-9400 -738 3226 0
-3227 9400 0
-3227 754 0
-9400 -754 3227 0
-3228 9400 0
-3228 769 0
-9400 -769 3228 0
-3229 9400 0
-3229 783 0
-9400 -783 3229 0
-3230 9400 0
-3230 796 0
-9400 -796 3230 0
-3231 9400 0
-3231 808 0
-9400 -808 3231 0
-3232 9400 0
-3232 819 0
-9400 -819 3232 0
-3233 9400 0
-3233 829 0
-9400 -829 3233 0
-3234 9400 0
-3234 838 0
-9400 -838 3234 0
-3235 9400 0
-3235 847 0
-9400 -847 3235 0
-3236 9400 0
-3236 848 0
-9400 -848 3236 0
-3237 9400 0
-3237 849 0
-9400 -849 3237 0
-3238 9400 0
-3238 850 0
-9400 -850 3238 0
-3239 9400 0
-3239 851 0
-9400 -851 3239 0
-3240 9400 0
-3240 852 0
-9400 -852 3240 0
-3241 9400 0
-3241 853 0
-9400 -853 3241 0
-3242 9400 0
-3242 854 0
-9400 -854 3242 0
-3243 9401 0
-3243 685 0
-9401 -685 3243 0
-3244 9401 0
-3244 704 0
-9401 -704 3244 0
-3245 9401 0
-3245 722 0
-9401 -722 3245 0
-3246 9401 0
-3246 739 0
-9401 -739 3246 0
-3247 9401 0
-3247 755 0
-9401 -755 3247 0
-3248 9401 0
-3248 770 0
-9401 -770 3248 0
-3249 9401 0
-3249 784 0
-9401 -784 3249 0
-3250 9401 0
-3250 797 0
-9401 -797 3250 0
-3251 9401 0
-3251 809 0
-9401 -809 3251 0
-3252 9401 0
-3252 820 0
-9401 -820 3252 0
-3253 9401 0
-3253 830 0
-9401 -830 3253 0
-3254 9401 0
-3254 839 0
-9401 -839 3254 0
-3255 9401 0
-3255 847 0
-9401 -847 3255 0
-3256 9401 0
-3256 855 0
-9401 -855 3256 0
-3257 9401 0
-3257 856 0
-9401 -856 3257 0
-3258 9401 0
-3258 857 0
-9401 -857 3258 0
-3259 9401 0
-3259 858 0
-9401 -858 3259 0
-3260 9401 0
-3260 859 0
-9401 -859 3260 0
-3261 9401 0
-3261 860 0
-9401 -860 3261 0
-3262 9401 0
-3262 861 0
-9401 -861 3262 0
-3263 9402 0
-3263 686 0
-9402 -686 3263 0
-3264 9402 0
-3264 705 0
-9402 -705 3264 0
-3265 9402 0
-3265 723 0
-9402 -723 3265 0
-3266 9402 0
-3266 740 0
-9402 -740 3266 0
-3267 9402 0
-3267 756 0
-9402 -756 3267 0
-3268 9402 0
-3268 771 0
-9402 -771 3268 0
-3269 9402 0
-3269 785 0
-9402 -785 3269 0
-3270 9402 0
-3270 798 0
-9402 -798 3270 0
-3271 9402 0
-3271 810 0
-9402 -810 3271 0
-3272 9402 0
-3272 821 0
-9402 -821 3272 0
-3273 9402 0
-3273 831 0
-9402 -831 3273 0
-3274 9402 0
-3274 840 0
-9402 -840 3274 0
-3275 9402 0
-3275 848 0
-9402 -848 3275 0
-3276 9402 0
-3276 855 0
-9402 -855 3276 0
-3277 9402 0
-3277 862 0
-9402 -862 3277 0
-3278 9402 0
-3278 863 0
-9402 -863 3278 0
-3279 9402 0
-3279 864 0
-9402 -864 3279 0
-3280 9402 0
-3280 865 0
-9402 -865 3280 0
-3281 9402 0
-3281 866 0
-9402 -866 3281 0
-3282 9402 0
-3282 867 0
-9402 -867 3282 0
-3283 9403 0
-3283 687 0
-9403 -687 3283 0
-3284 9403 0
-3284 706 0
-9403 -706 3284 0
-3285 9403 0
-3285 724 0
-9403 -724 3285 0
-3286 9403 0
-3286 741 0
-9403 -741 3286 0
-3287 9403 0
-3287 757 0
-9403 -757 3287 0
-3288 9403 0
-3288 772 0
-9403 -772 3288 0
-3289 9403 0
-3289 786 0
-9403 -786 3289 0
-3290 9403 0
-3290 799 0
-9403 -799 3290 0
-3291 9403 0
-3291 811 0
-9403 -811 3291 0
-3292 9403 0
-3292 822 0
-9403 -822 3292 0
-3293 9403 0
-3293 832 0
-9403 -832 3293 0
-3294 9403 0
-3294 841 0
-9403 -841 3294 0
-3295 9403 0
-3295 849 0
-9403 -849 3295 0
-3296 9403 0
-3296 856 0
-9403 -856 3296 0
-3297 9403 0
-3297 862 0
-9403 -862 3297 0
-3298 9403 0
-3298 868 0
-9403 -868 3298 0
-3299 9403 0
-3299 869 0
-9403 -869 3299 0
-3300 9403 0
-3300 870 0
-9403 -870 3300 0
-3301 9403 0
-3301 871 0
-9403 -871 3301 0
-3302 9403 0
-3302 872 0
-9403 -872 3302 0
-3303 9404 0
-3303 688 0
-9404 -688 3303 0
-3304 9404 0
-3304 707 0
-9404 -707 3304 0
-3305 9404 0
-3305 725 0
-9404 -725 3305 0
-3306 9404 0
-3306 742 0
-9404 -742 3306 0
-3307 9404 0
-3307 758 0
-9404 -758 3307 0
-3308 9404 0
-3308 773 0
-9404 -773 3308 0
-3309 9404 0
-3309 787 0
-9404 -787 3309 0
-3310 9404 0
-3310 800 0
-9404 -800 3310 0
-3311 9404 0
-3311 812 0
-9404 -812 3311 0
-3312 9404 0
-3312 823 0
-9404 -823 3312 0
-3313 9404 0
-3313 833 0
-9404 -833 3313 0
-3314 9404 0
-3314 842 0
-9404 -842 3314 0
-3315 9404 0
-3315 850 0
-9404 -850 3315 0
-3316 9404 0
-3316 857 0
-9404 -857 3316 0
-3317 9404 0
-3317 863 0
-9404 -863 3317 0
-3318 9404 0
-3318 868 0
-9404 -868 3318 0
-3319 9404 0
-3319 873 0
-9404 -873 3319 0
-3320 9404 0
-3320 874 0
-9404 -874 3320 0
-3321 9404 0
-3321 875 0
-9404 -875 3321 0
-3322 9404 0
-3322 876 0
-9404 -876 3322 0
-3323 9405 0
-3323 689 0
-9405 -689 3323 0
-3324 9405 0
-3324 708 0
-9405 -708 3324 0
-3325 9405 0
-3325 726 0
-9405 -726 3325 0
-3326 9405 0
-3326 743 0
-9405 -743 3326 0
-3327 9405 0
-3327 759 0
-9405 -759 3327 0
-3328 9405 0
-3328 774 0
-9405 -774 3328 0
-3329 9405 0
-3329 788 0
-9405 -788 3329 0
-3330 9405 0
-3330 801 0
-9405 -801 3330 0
-3331 9405 0
-3331 813 0
-9405 -813 3331 0
-3332 9405 0
-3332 824 0
-9405 -824 3332 0
-3333 9405 0
-3333 834 0
-9405 -834 3333 0
-3334 9405 0
-3334 843 0
-9405 -843 3334 0
-3335 9405 0
-3335 851 0
-9405 -851 3335 0
-3336 9405 0
-3336 858 0
-9405 -858 3336 0
-3337 9405 0
-3337 864 0
-9405 -864 3337 0
-3338 9405 0
-3338 869 0
-9405 -869 3338 0
-3339 9405 0
-3339 873 0
-9405 -873 3339 0
-3340 9405 0
-3340 877 0
-9405 -877 3340 0
-3341 9405 0
-3341 878 0
-9405 -878 3341 0
-3342 9405 0
-3342 879 0
-9405 -879 3342 0
-3343 9406 0
-3343 690 0
-9406 -690 3343 0
-3344 9406 0
-3344 709 0
-9406 -709 3344 0
-3345 9406 0
-3345 727 0
-9406 -727 3345 0
-3346 9406 0
-3346 744 0
-9406 -744 3346 0
-3347 9406 0
-3347 760 0
-9406 -760 3347 0
-3348 9406 0
-3348 775 0
-9406 -775 3348 0
-3349 9406 0
-3349 789 0
-9406 -789 3349 0
-3350 9406 0
-3350 802 0
-9406 -802 3350 0
-3351 9406 0
-3351 814 0
-9406 -814 3351 0
-3352 9406 0
-3352 825 0
-9406 -825 3352 0
-3353 9406 0
-3353 835 0
-9406 -835 3353 0
-3354 9406 0
-3354 844 0
-9406 -844 3354 0
-3355 9406 0
-3355 852 0
-9406 -852 3355 0
-3356 9406 0
-3356 859 0
-9406 -859 3356 0
-3357 9406 0
-3357 865 0
-9406 -865 3357 0
-3358 9406 0
-3358 870 0
-9406 -870 3358 0
-3359 9406 0
-3359 874 0
-9406 -874 3359 0
-3360 9406 0
-3360 877 0
-9406 -877 3360 0
-3361 9406 0
-3361 880 0
-9406 -880 3361 0
-3362 9406 0
-3362 881 0
-9406 -881 3362 0
-3363 9407 0
-3363 691 0
-9407 -691 3363 0
-3364 9407 0
-3364 710 0
-9407 -710 3364 0
-3365 9407 0
-3365 728 0
-9407 -728 3365 0
-3366 9407 0
-3366 745 0
-9407 -745 3366 0
-3367 9407 0
-3367 761 0
-9407 -761 3367 0
-3368 9407 0
-3368 776 0
-9407 -776 3368 0
-3369 9407 0
-3369 790 0
-9407 -790 3369 0
-3370 9407 0
-3370 803 0
-9407 -803 3370 0
-3371 9407 0
-3371 815 0
-9407 -815 3371 0
-3372 9407 0
-3372 826 0
-9407 -826 3372 0
-3373 9407 0
-3373 836 0
-9407 -836 3373 0
-3374 9407 0
-3374 845 0
-9407 -845 3374 0
-3375 9407 0
-3375 853 0
-9407 -853 3375 0
-3376 9407 0
-3376 860 0
-9407 -860 3376 0
-3377 9407 0
-3377 866 0
-9407 -866 3377 0
-3378 9407 0
-3378 871 0
-9407 -871 3378 0
-3379 9407 0
-3379 875 0
-9407 -875 3379 0
-3380 9407 0
-3380 878 0
-9407 -878 3380 0
-3381 9407 0
-3381 880 0
-9407 -880 3381 0
-3382 9407 0
-3382 882 0
-9407 -882 3382 0
-3383 9408 0
-3383 692 0
-9408 -692 3383 0
-3384 9408 0
-3384 711 0
-9408 -711 3384 0
-3385 9408 0
-3385 729 0
-9408 -729 3385 0
-3386 9408 0
-3386 746 0
-9408 -746 3386 0
-3387 9408 0
-3387 762 0
-9408 -762 3387 0
-3388 9408 0
-3388 777 0
-9408 -777 3388 0
-3389 9408 0
-3389 791 0
-9408 -791 3389 0
-3390 9408 0
-3390 804 0
-9408 -804 3390 0
-3391 9408 0
-3391 816 0
-9408 -816 3391 0
-3392 9408 0
-3392 827 0
-9408 -827 3392 0
-3393 9408 0
-3393 837 0
-9408 -837 3393 0
-3394 9408 0
-3394 846 0
-9408 -846 3394 0
-3395 9408 0
-3395 854 0
-9408 -854 3395 0
-3396 9408 0
-3396 861 0
-9408 -861 3396 0
-3397 9408 0
-3397 867 0
-9408 -867 3397 0
-3398 9408 0
-3398 872 0
-9408 -872 3398 0
-3399 9408 0
-3399 876 0
-9408 -876 3399 0
-3400 9408 0
-3400 879 0
-9408 -879 3400 0
-3401 9408 0
-3401 881 0
-9408 -881 3401 0
-3402 9408 0
-3402 882 0
-9408 -882 3402 0
-3403 9409 0
-3403 673 0
-9409 -673 3403 0
-3404 9409 0
-3404 674 0
-9409 -674 3404 0
-3405 9409 0
-3405 675 0
-9409 -675 3405 0
-3406 9409 0
-3406 676 0
-9409 -676 3406 0
-3407 9409 0
-3407 677 0
-9409 -677 3407 0
-3408 9409 0
-3408 678 0
-9409 -678 3408 0
-3409 9409 0
-3409 679 0
-9409 -679 3409 0
-3410 9409 0
-3410 680 0
-9409 -680 3410 0
-3411 9409 0
-3411 681 0
-9409 -681 3411 0
-3412 9409 0
-3412 682 0
-9409 -682 3412 0
-3413 9409 0
-3413 683 0
-9409 -683 3413 0
-3414 9409 0
-3414 684 0
-9409 -684 3414 0
-3415 9409 0
-3415 685 0
-9409 -685 3415 0
-3416 9409 0
-3416 686 0
-9409 -686 3416 0
-3417 9409 0
-3417 687 0
-9409 -687 3417 0
-3418 9409 0
-3418 688 0
-9409 -688 3418 0
-3419 9409 0
-3419 689 0
-9409 -689 3419 0
-3420 9409 0
-3420 690 0
-9409 -690 3420 0
-3421 9409 0
-3421 691 0
-9409 -691 3421 0
-3422 9409 0
-3422 692 0
-9409 -692 3422 0
-3423 9410 0
-3423 673 0
-9410 -673 3423 0
-3424 9410 0
-3424 693 0
-9410 -693 3424 0
-3425 9410 0
-3425 694 0
-9410 -694 3425 0
-3426 9410 0
-3426 695 0
-9410 -695 3426 0
-3427 9410 0
-3427 696 0
-9410 -696 3427 0
-3428 9410 0
-3428 697 0
-9410 -697 3428 0
-3429 9410 0
-3429 698 0
-9410 -698 3429 0
-3430 9410 0
-3430 699 0
-9410 -699 3430 0
-3431 9410 0
-3431 700 0
-9410 -700 3431 0
-3432 9410 0
-3432 701 0
-9410 -701 3432 0
-3433 9410 0
-3433 702 0
-9410 -702 3433 0
-3434 9410 0
-3434 703 0
-9410 -703 3434 0
-3435 9410 0
-3435 704 0
-9410 -704 3435 0
-3436 9410 0
-3436 705 0
-9410 -705 3436 0
-3437 9410 0
-3437 706 0
-9410 -706 3437 0
-3438 9410 0
-3438 707 0
-9410 -707 3438 0
-3439 9410 0
-3439 708 0
-9410 -708 3439 0
-3440 9410 0
-3440 709 0
-9410 -709 3440 0
-3441 9410 0
-3441 710 0
-9410 -710 3441 0
-3442 9410 0
-3442 711 0
-9410 -711 3442 0
-3443 9411 0
-3443 674 0
-9411 -674 3443 0
-3444 9411 0
-3444 693 0
-9411 -693 3444 0
-3445 9411 0
-3445 712 0
-9411 -712 3445 0
-3446 9411 0
-3446 713 0
-9411 -713 3446 0
-3447 9411 0
-3447 714 0
-9411 -714 3447 0
-3448 9411 0
-3448 715 0
-9411 -715 3448 0
-3449 9411 0
-3449 716 0
-9411 -716 3449 0
-3450 9411 0
-3450 717 0
-9411 -717 3450 0
-3451 9411 0
-3451 718 0
-9411 -718 3451 0
-3452 9411 0
-3452 719 0
-9411 -719 3452 0
-3453 9411 0
-3453 720 0
-9411 -720 3453 0
-3454 9411 0
-3454 721 0
-9411 -721 3454 0
-3455 9411 0
-3455 722 0
-9411 -722 3455 0
-3456 9411 0
-3456 723 0
-9411 -723 3456 0
-3457 9411 0
-3457 724 0
-9411 -724 3457 0
-3458 9411 0
-3458 725 0
-9411 -725 3458 0
-3459 9411 0
-3459 726 0
-9411 -726 3459 0
-3460 9411 0
-3460 727 0
-9411 -727 3460 0
-3461 9411 0
-3461 728 0
-9411 -728 3461 0
-3462 9411 0
-3462 729 0
-9411 -729 3462 0
-3463 9412 0
-3463 675 0
-9412 -675 3463 0
-3464 9412 0
-3464 694 0
-9412 -694 3464 0
-3465 9412 0
-3465 712 0
-9412 -712 3465 0
-3466 9412 0
-3466 730 0
-9412 -730 3466 0
-3467 9412 0
-3467 731 0
-9412 -731 3467 0
-3468 9412 0
-3468 732 0
-9412 -732 3468 0
-3469 9412 0
-3469 733 0
-9412 -733 3469 0
-3470 9412 0
-3470 734 0
-9412 -734 3470 0
-3471 9412 0
-3471 735 0
-9412 -735 3471 0
-3472 9412 0
-3472 736 0
-9412 -736 3472 0
-3473 9412 0
-3473 737 0
-9412 -737 3473 0
-3474 9412 0
-3474 738 0
-9412 -738 3474 0
-3475 9412 0
-3475 739 0
-9412 -739 3475 0
-3476 9412 0
-3476 740 0
-9412 -740 3476 0
-3477 9412 0
-3477 741 0
-9412 -741 3477 0
-3478 9412 0
-3478 742 0
-9412 -742 3478 0
-3479 9412 0
-3479 743 0
-9412 -743 3479 0
-3480 9412 0
-3480 744 0
-9412 -744 3480 0
-3481 9412 0
-3481 745 0
-9412 -745 3481 0
-3482 9412 0
-3482 746 0
-9412 -746 3482 0
-3483 9413 0
-3483 676 0
-9413 -676 3483 0
-3484 9413 0
-3484 695 0
-9413 -695 3484 0
-3485 9413 0
-3485 713 0
-9413 -713 3485 0
-3486 9413 0
-3486 730 0
-9413 -730 3486 0
-3487 9413 0
-3487 747 0
-9413 -747 3487 0
-3488 9413 0
-3488 748 0
-9413 -748 3488 0
-3489 9413 0
-3489 749 0
-9413 -749 3489 0
-3490 9413 0
-3490 750 0
-9413 -750 3490 0
-3491 9413 0
-3491 751 0
-9413 -751 3491 0
-3492 9413 0
-3492 752 0
-9413 -752 3492 0
-3493 9413 0
-3493 753 0
-9413 -753 3493 0
-3494 9413 0
-3494 754 0
-9413 -754 3494 0
-3495 9413 0
-3495 755 0
-9413 -755 3495 0
-3496 9413 0
-3496 756 0
-9413 -756 3496 0
-3497 9413 0
-3497 757 0
-9413 -757 3497 0
-3498 9413 0
-3498 758 0
-9413 -758 3498 0
-3499 9413 0
-3499 759 0
-9413 -759 3499 0
-3500 9413 0
-3500 760 0
-9413 -760 3500 0
-3501 9413 0
-3501 761 0
-9413 -761 3501 0
-3502 9413 0
-3502 762 0
-9413 -762 3502 0
-3503 9414 0
-3503 677 0
-9414 -677 3503 0
-3504 9414 0
-3504 696 0
-9414 -696 3504 0
-3505 9414 0
-3505 714 0
-9414 -714 3505 0
-3506 9414 0
-3506 731 0
-9414 -731 3506 0
-3507 9414 0
-3507 747 0
-9414 -747 3507 0
-3508 9414 0
-3508 763 0
-9414 -763 3508 0
-3509 9414 0
-3509 764 0
-9414 -764 3509 0
-3510 9414 0
-3510 765 0
-9414 -765 3510 0
-3511 9414 0
-3511 766 0
-9414 -766 3511 0
-3512 9414 0
-3512 767 0
-9414 -767 3512 0
-3513 9414 0
-3513 768 0
-9414 -768 3513 0
-3514 9414 0
-3514 769 0
-9414 -769 3514 0
-3515 9414 0
-3515 770 0
-9414 -770 3515 0
-3516 9414 0
-3516 771 0
-9414 -771 3516 0
-3517 9414 0
-3517 772 0
-9414 -772 3517 0
-3518 9414 0
-3518 773 0
-9414 -773 3518 0
-3519 9414 0
-3519 774 0
-9414 -774 3519 0
-3520 9414 0
-3520 775 0
-9414 -775 3520 0
-3521 9414 0
-3521 776 0
-9414 -776 3521 0
-3522 9414 0
-3522 777 0
-9414 -777 3522 0
-3523 9415 0
-3523 678 0
-9415 -678 3523 0
-3524 9415 0
-3524 697 0
-9415 -697 3524 0
-3525 9415 0
-3525 715 0
-9415 -715 3525 0
-3526 9415 0
-3526 732 0
-9415 -732 3526 0
-3527 9415 0
-3527 748 0
-9415 -748 3527 0
-3528 9415 0
-3528 763 0
-9415 -763 3528 0
-3529 9415 0
-3529 778 0
-9415 -778 3529 0
-3530 9415 0
-3530 779 0
-9415 -779 3530 0
-3531 9415 0
-3531 780 0
-9415 -780 3531 0
-3532 9415 0
-3532 781 0
-9415 -781 3532 0
-3533 9415 0
-3533 782 0
-9415 -782 3533 0
-3534 9415 0
-3534 783 0
-9415 -783 3534 0
-3535 9415 0
-3535 784 0
-9415 -784 3535 0
-3536 9415 0
-3536 785 0
-9415 -785 3536 0
-3537 9415 0
-3537 786 0
-9415 -786 3537 0
-3538 9415 0
-3538 787 0
-9415 -787 3538 0
-3539 9415 0
-3539 788 0
-9415 -788 3539 0
-3540 9415 0
-3540 789 0
-9415 -789 3540 0
-3541 9415 0
-3541 790 0
-9415 -790 3541 0
-3542 9415 0
-3542 791 0
-9415 -791 3542 0
-3543 9416 0
-3543 679 0
-9416 -679 3543 0
-3544 9416 0
-3544 698 0
-9416 -698 3544 0
-3545 9416 0
-3545 716 0
-9416 -716 3545 0
-3546 9416 0
-3546 733 0
-9416 -733 3546 0
-3547 9416 0
-3547 749 0
-9416 -749 3547 0
-3548 9416 0
-3548 764 0
-9416 -764 3548 0
-3549 9416 0
-3549 778 0
-9416 -778 3549 0
-3550 9416 0
-3550 792 0
-9416 -792 3550 0
-3551 9416 0
-3551 793 0
-9416 -793 3551 0
-3552 9416 0
-3552 794 0
-9416 -794 3552 0
-3553 9416 0
-3553 795 0
-9416 -795 3553 0
-3554 9416 0
-3554 796 0
-9416 -796 3554 0
-3555 9416 0
-3555 797 0
-9416 -797 3555 0
-3556 9416 0
-3556 798 0
-9416 -798 3556 0
-3557 9416 0
-3557 799 0
-9416 -799 3557 0
-3558 9416 0
-3558 800 0
-9416 -800 3558 0
-3559 9416 0
-3559 801 0
-9416 -801 3559 0
-3560 9416 0
-3560 802 0
-9416 -802 3560 0
-3561 9416 0
-3561 803 0
-9416 -803 3561 0
-3562 9416 0
-3562 804 0
-9416 -804 3562 0
-3563 9417 0
-3563 680 0
-9417 -680 3563 0
-3564 9417 0
-3564 699 0
-9417 -699 3564 0
-3565 9417 0
-3565 717 0
-9417 -717 3565 0
-3566 9417 0
-3566 734 0
-9417 -734 3566 0
-3567 9417 0
-3567 750 0
-9417 -750 3567 0
-3568 9417 0
-3568 765 0
-9417 -765 3568 0
-3569 9417 0
-3569 779 0
-9417 -779 3569 0
-3570 9417 0
-3570 792 0
-9417 -792 3570 0
-3571 9417 0
-3571 805 0
-9417 -805 3571 0
-3572 9417 0
-3572 806 0
-9417 -806 3572 0
-3573 9417 0
-3573 807 0
-9417 -807 3573 0
-3574 9417 0
-3574 808 0
-9417 -808 3574 0
-3575 9417 0
-3575 809 0
-9417 -809 3575 0
-3576 9417 0
-3576 810 0
-9417 -810 3576 0
-3577 9417 0
-3577 811 0
-9417 -811 3577 0
-3578 9417 0
-3578 812 0
-9417 -812 3578 0
-3579 9417 0
-3579 813 0
-9417 -813 3579 0
-3580 9417 0
-3580 814 0
-9417 -814 3580 0
-3581 9417 0
-3581 815 0
-9417 -815 3581 0
-3582 9417 0
-3582 816 0
-9417 -816 3582 0
-3583 9418 0
-3583 681 0
-9418 -681 3583 0
-3584 9418 0
-3584 700 0
-9418 -700 3584 0
-3585 9418 0
-3585 718 0
-9418 -718 3585 0
-3586 9418 0
-3586 735 0
-9418 -735 3586 0
-3587 9418 0
-3587 751 0
-9418 -751 3587 0
-3588 9418 0
-3588 766 0
-9418 -766 3588 0
-3589 9418 0
-3589 780 0
-9418 -780 3589 0
-3590 9418 0
-3590 793 0
-9418 -793 3590 0
-3591 9418 0
-3591 805 0
-9418 -805 3591 0
-3592 9418 0
-3592 817 0
-9418 -817 3592 0
-3593 9418 0
-3593 818 0
-9418 -818 3593 0
-3594 9418 0
-3594 819 0
-9418 -819 3594 0
-3595 9418 0
-3595 820 0
-9418 -820 3595 0
-3596 9418 0
-3596 821 0
-9418 -821 3596 0
-3597 9418 0
-3597 822 0
-9418 -822 3597 0
-3598 9418 0
-3598 823 0
-9418 -823 3598 0
-3599 9418 0
-3599 824 0
-9418 -824 3599 0
-3600 9418 0
-3600 825 0
-9418 -825 3600 0
-3601 9418 0
-3601 826 0
-9418 -826 3601 0
-3602 9418 0
-3602 827 0
-9418 -827 3602 0
-3603 9419 0
-3603 682 0
-9419 -682 3603 0
-3604 9419 0
-3604 701 0
-9419 -701 3604 0
-3605 9419 0
-3605 719 0
-9419 -719 3605 0
-3606 9419 0
-3606 736 0
-9419 -736 3606 0
-3607 9419 0
-3607 752 0
-9419 -752 3607 0
-3608 9419 0
-3608 767 0
-9419 -767 3608 0
-3609 9419 0
-3609 781 0
-9419 -781 3609 0
-3610 9419 0
-3610 794 0
-9419 -794 3610 0
-3611 9419 0
-3611 806 0
-9419 -806 3611 0
-3612 9419 0
-3612 817 0
-9419 -817 3612 0
-3613 9419 0
-3613 828 0
-9419 -828 3613 0
-3614 9419 0
-3614 829 0
-9419 -829 3614 0
-3615 9419 0
-3615 830 0
-9419 -830 3615 0
-3616 9419 0
-3616 831 0
-9419 -831 3616 0
-3617 9419 0
-3617 832 0
-9419 -832 3617 0
-3618 9419 0
-3618 833 0
-9419 -833 3618 0
-3619 9419 0
-3619 834 0
-9419 -834 3619 0
-3620 9419 0
-3620 835 0
-9419 -835 3620 0
-3621 9419 0
-3621 836 0
-9419 -836 3621 0
-3622 9419 0
-3622 837 0
-9419 -837 3622 0
-3623 9420 0
-3623 683 0
-9420 -683 3623 0
-3624 9420 0
-3624 702 0
-9420 -702 3624 0
-3625 9420 0
-3625 720 0
-9420 -720 3625 0
-3626 9420 0
-3626 737 0
-9420 -737 3626 0
-3627 9420 0
-3627 753 0
-9420 -753 3627 0
-3628 9420 0
-3628 768 0
-9420 -768 3628 0
-3629 9420 0
-3629 782 0
-9420 -782 3629 0
-3630 9420 0
-3630 795 0
-9420 -795 3630 0
-3631 9420 0
-3631 807 0
-9420 -807 3631 0
-3632 9420 0
-3632 818 0
-9420 -818 3632 0
-3633 9420 0
-3633 828 0
-9420 -828 3633 0
-3634 9420 0
-3634 838 0
-9420 -838 3634 0
-3635 9420 0
-3635 839 0
-9420 -839 3635 0
-3636 9420 0
-3636 840 0
-9420 -840 3636 0
-3637 9420 0
-3637 841 0
-9420 -841 3637 0
-3638 9420 0
-3638 842 0
-9420 -842 3638 0
-3639 9420 0
-3639 843 0
-9420 -843 3639 0
-3640 9420 0
-3640 844 0
-9420 -844 3640 0
-3641 9420 0
-3641 845 0
-9420 -845 3641 0
-3642 9420 0
-3642 846 0
-9420 -846 3642 0
-3643 9421 0
-3643 684 0
-9421 -684 3643 0
-3644 9421 0
-3644 703 0
-9421 -703 3644 0
-3645 9421 0
-3645 721 0
-9421 -721 3645 0
-3646 9421 0
-3646 738 0
-9421 -738 3646 0
-3647 9421 0
-3647 754 0
-9421 -754 3647 0
-3648 9421 0
-3648 769 0
-9421 -769 3648 0
-3649 9421 0
-3649 783 0
-9421 -783 3649 0
-3650 9421 0
-3650 796 0
-9421 -796 3650 0
-3651 9421 0
-3651 808 0
-9421 -808 3651 0
-3652 9421 0
-3652 819 0
-9421 -819 3652 0
-3653 9421 0
-3653 829 0
-9421 -829 3653 0
-3654 9421 0
-3654 838 0
-9421 -838 3654 0
-3655 9421 0
-3655 847 0
-9421 -847 3655 0
-3656 9421 0
-3656 848 0
-9421 -848 3656 0
-3657 9421 0
-3657 849 0
-9421 -849 3657 0
-3658 9421 0
-3658 850 0
-9421 -850 3658 0
-3659 9421 0
-3659 851 0
-9421 -851 3659 0
-3660 9421 0
-3660 852 0
-9421 -852 3660 0
-3661 9421 0
-3661 853 0
-9421 -853 3661 0
-3662 9421 0
-3662 854 0
-9421 -854 3662 0
-3663 9422 0
-3663 685 0
-9422 -685 3663 0
-3664 9422 0
-3664 704 0
-9422 -704 3664 0
-3665 9422 0
-3665 722 0
-9422 -722 3665 0
-3666 9422 0
-3666 739 0
-9422 -739 3666 0
-3667 9422 0
-3667 755 0
-9422 -755 3667 0
-3668 9422 0
-3668 770 0
-9422 -770 3668 0
-3669 9422 0
-3669 784 0
-9422 -784 3669 0
-3670 9422 0
-3670 797 0
-9422 -797 3670 0
-3671 9422 0
-3671 809 0
-9422 -809 3671 0
-3672 9422 0
-3672 820 0
-9422 -820 3672 0
-3673 9422 0
-3673 830 0
-9422 -830 3673 0
-3674 9422 0
-3674 839 0
-9422 -839 3674 0
-3675 9422 0
-3675 847 0
-9422 -847 3675 0
-3676 9422 0
-3676 855 0
-9422 -855 3676 0
-3677 9422 0
-3677 856 0
-9422 -856 3677 0
-3678 9422 0
-3678 857 0
-9422 -857 3678 0
-3679 9422 0
-3679 858 0
-9422 -858 3679 0
-3680 9422 0
-3680 859 0
-9422 -859 3680 0
-3681 9422 0
-3681 860 0
-9422 -860 3681 0
-3682 9422 0
-3682 861 0
-9422 -861 3682 0
-3683 9423 0
-3683 686 0
-9423 -686 3683 0
-3684 9423 0
-3684 705 0
-9423 -705 3684 0
-3685 9423 0
-3685 723 0
-9423 -723 3685 0
-3686 9423 0
-3686 740 0
-9423 -740 3686 0
-3687 9423 0
-3687 756 0
-9423 -756 3687 0
-3688 9423 0
-3688 771 0
-9423 -771 3688 0
-3689 9423 0
-3689 785 0
-9423 -785 3689 0
-3690 9423 0
-3690 798 0
-9423 -798 3690 0
-3691 9423 0
-3691 810 0
-9423 -810 3691 0
-3692 9423 0
-3692 821 0
-9423 -821 3692 0
-3693 9423 0
-3693 831 0
-9423 -831 3693 0
-3694 9423 0
-3694 840 0
-9423 -840 3694 0
-3695 9423 0
-3695 848 0
-9423 -848 3695 0
-3696 9423 0
-3696 855 0
-9423 -855 3696 0
-3697 9423 0
-3697 862 0
-9423 -862 3697 0
-3698 9423 0
-3698 863 0
-9423 -863 3698 0
-3699 9423 0
-3699 864 0
-9423 -864 3699 0
-3700 9423 0
-3700 865 0
-9423 -865 3700 0
-3701 9423 0
-3701 866 0
-9423 -866 3701 0
-3702 9423 0
-3702 867 0
-9423 -867 3702 0
-3703 9424 0
-3703 687 0
-9424 -687 3703 0
-3704 9424 0
-3704 706 0
-9424 -706 3704 0
-3705 9424 0
-3705 724 0
-9424 -724 3705 0
-3706 9424 0
-3706 741 0
-9424 -741 3706 0
-3707 9424 0
-3707 757 0
-9424 -757 3707 0
-3708 9424 0
-3708 772 0
-9424 -772 3708 0
-3709 9424 0
-3709 786 0
-9424 -786 3709 0
-3710 9424 0
-3710 799 0
-9424 -799 3710 0
-3711 9424 0
-3711 811 0
-9424 -811 3711 0
-3712 9424 0
-3712 822 0
-9424 -822 3712 0
-3713 9424 0
-3713 832 0
-9424 -832 3713 0
-3714 9424 0
-3714 841 0
-9424 -841 3714 0
-3715 9424 0
-3715 849 0
-9424 -849 3715 0
-3716 9424 0
-3716 856 0
-9424 -856 3716 0
-3717 9424 0
-3717 862 0
-9424 -862 3717 0
-3718 9424 0
-3718 868 0
-9424 -868 3718 0
-3719 9424 0
-3719 869 0
-9424 -869 3719 0
-3720 9424 0
-3720 870 0
-9424 -870 3720 0
-3721 9424 0
-3721 871 0
-9424 -871 3721 0
-3722 9424 0
-3722 872 0
-9424 -872 3722 0
-3723 9425 0
-3723 688 0
-9425 -688 3723 0
-3724 9425 0
-3724 707 0
-9425 -707 3724 0
-3725 9425 0
-3725 725 0
-9425 -725 3725 0
-3726 9425 0
-3726 742 0
-9425 -742 3726 0
-3727 9425 0
-3727 758 0
-9425 -758 3727 0
-3728 9425 0
-3728 773 0
-9425 -773 3728 0
-3729 9425 0
-3729 787 0
-9425 -787 3729 0
-3730 9425 0
-3730 800 0
-9425 -800 3730 0
-3731 9425 0
-3731 812 0
-9425 -812 3731 0
-3732 9425 0
-3732 823 0
-9425 -823 3732 0
-3733 9425 0
-3733 833 0
-9425 -833 3733 0
-3734 9425 0
-3734 842 0
-9425 -842 3734 0
-3735 9425 0
-3735 850 0
-9425 -850 3735 0
-3736 9425 0
-3736 857 0
-9425 -857 3736 0
-3737 9425 0
-3737 863 0
-9425 -863 3737 0
-3738 9425 0
-3738 868 0
-9425 -868 3738 0
-3739 9425 0
-3739 873 0
-9425 -873 3739 0
-3740 9425 0
-3740 874 0
-9425 -874 3740 0
-3741 9425 0
-3741 875 0
-9425 -875 3741 0
-3742 9425 0
-3742 876 0
-9425 -876 3742 0
-3743 9426 0
-3743 689 0
-9426 -689 3743 0
-3744 9426 0
-3744 708 0
-9426 -708 3744 0
-3745 9426 0
-3745 726 0
-9426 -726 3745 0
-3746 9426 0
-3746 743 0
-9426 -743 3746 0
-3747 9426 0
-3747 759 0
-9426 -759 3747 0
-3748 9426 0
-3748 774 0
-9426 -774 3748 0
-3749 9426 0
-3749 788 0
-9426 -788 3749 0
-3750 9426 0
-3750 801 0
-9426 -801 3750 0
-3751 9426 0
-3751 813 0
-9426 -813 3751 0
-3752 9426 0
-3752 824 0
-9426 -824 3752 0
-3753 9426 0
-3753 834 0
-9426 -834 3753 0
-3754 9426 0
-3754 843 0
-9426 -843 3754 0
-3755 9426 0
-3755 851 0
-9426 -851 3755 0
-3756 9426 0
-3756 858 0
-9426 -858 3756 0
-3757 9426 0
-3757 864 0
-9426 -864 3757 0
-3758 9426 0
-3758 869 0
-9426 -869 3758 0
-3759 9426 0
-3759 873 0
-9426 -873 3759 0
-3760 9426 0
-3760 877 0
-9426 -877 3760 0
-3761 9426 0
-3761 878 0
-9426 -878 3761 0
-3762 9426 0
-3762 879 0
-9426 -879 3762 0
-3763 9427 0
-3763 690 0
-9427 -690 3763 0
-3764 9427 0
-3764 709 0
-9427 -709 3764 0
-3765 9427 0
-3765 727 0
-9427 -727 3765 0
-3766 9427 0
-3766 744 0
-9427 -744 3766 0
-3767 9427 0
-3767 760 0
-9427 -760 3767 0
-3768 9427 0
-3768 775 0
-9427 -775 3768 0
-3769 9427 0
-3769 789 0
-9427 -789 3769 0
-3770 9427 0
-3770 802 0
-9427 -802 3770 0
-3771 9427 0
-3771 814 0
-9427 -814 3771 0
-3772 9427 0
-3772 825 0
-9427 -825 3772 0
-3773 9427 0
-3773 835 0
-9427 -835 3773 0
-3774 9427 0
-3774 844 0
-9427 -844 3774 0
-3775 9427 0
-3775 852 0
-9427 -852 3775 0
-3776 9427 0
-3776 859 0
-9427 -859 3776 0
-3777 9427 0
-3777 865 0
-9427 -865 3777 0
-3778 9427 0
-3778 870 0
-9427 -870 3778 0
-3779 9427 0
-3779 874 0
-9427 -874 3779 0
-3780 9427 0
-3780 877 0
-9427 -877 3780 0
-3781 9427 0
-3781 880 0
-9427 -880 3781 0
-3782 9427 0
-3782 881 0
-9427 -881 3782 0
-3783 9428 0
-3783 691 0
-9428 -691 3783 0
-3784 9428 0
-3784 710 0
-9428 -710 3784 0
-3785 9428 0
-3785 728 0
-9428 -728 3785 0
-3786 9428 0
-3786 745 0
-9428 -745 3786 0
-3787 9428 0
-3787 761 0
-9428 -761 3787 0
-3788 9428 0
-3788 776 0
-9428 -776 3788 0
-3789 9428 0
-3789 790 0
-9428 -790 3789 0
-3790 9428 0
-3790 803 0
-9428 -803 3790 0
-3791 9428 0
-3791 815 0
-9428 -815 3791 0
-3792 9428 0
-3792 826 0
-9428 -826 3792 0
-3793 9428 0
-3793 836 0
-9428 -836 3793 0
-3794 9428 0
-3794 845 0
-9428 -845 3794 0
-3795 9428 0
-3795 853 0
-9428 -853 3795 0
-3796 9428 0
-3796 860 0
-9428 -860 3796 0
-3797 9428 0
-3797 866 0
-9428 -866 3797 0
-3798 9428 0
-3798 871 0
-9428 -871 3798 0
-3799 9428 0
-3799 875 0
-9428 -875 3799 0
-3800 9428 0
-3800 878 0
-9428 -878 3800 0
-3801 9428 0
-3801 880 0
-9428 -880 3801 0
-3802 9428 0
-3802 882 0
-9428 -882 3802 0
-3803 9429 0
-3803 692 0
-9429 -692 3803 0
-3804 9429 0
-3804 711 0
-9429 -711 3804 0
-3805 9429 0
-3805 729 0
-9429 -729 3805 0
-3806 9429 0
-3806 746 0
-9429 -746 3806 0
-3807 9429 0
-3807 762 0
-9429 -762 3807 0
-3808 9429 0
-3808 777 0
-9429 -777 3808 0
-3809 9429 0
-3809 791 0
-9429 -791 3809 0
-3810 9429 0
-3810 804 0
-9429 -804 3810 0
-3811 9429 0
-3811 816 0
-9429 -816 3811 0
-3812 9429 0
-3812 827 0
-9429 -827 3812 0
-3813 9429 0
-3813 837 0
-9429 -837 3813 0
-3814 9429 0
-3814 846 0
-9429 -846 3814 0
-3815 9429 0
-3815 854 0
-9429 -854 3815 0
-3816 9429 0
-3816 861 0
-9429 -861 3816 0
-3817 9429 0
-3817 867 0
-9429 -867 3817 0
-3818 9429 0
-3818 872 0
-9429 -872 3818 0
-3819 9429 0
-3819 876 0
-9429 -876 3819 0
-3820 9429 0
-3820 879 0
-9429 -879 3820 0
-3821 9429 0
-3821 881 0
-9429 -881 3821 0
-3822 9429 0
-3822 882 0
-9429 -882 3822 0
-3823 9430 0
-3823 673 0
-9430 -673 3823 0
-3824 9430 0
-3824 674 0
-9430 -674 3824 0
-3825 9430 0
-3825 675 0
-9430 -675 3825 0
-3826 9430 0
-3826 676 0
-9430 -676 3826 0
-3827 9430 0
-3827 677 0
-9430 -677 3827 0
-3828 9430 0
-3828 678 0
-9430 -678 3828 0
-3829 9430 0
-3829 679 0
-9430 -679 3829 0
-3830 9430 0
-3830 680 0
-9430 -680 3830 0
-3831 9430 0
-3831 681 0
-9430 -681 3831 0
-3832 9430 0
-3832 682 0
-9430 -682 3832 0
-3833 9430 0
-3833 683 0
-9430 -683 3833 0
-3834 9430 0
-3834 684 0
-9430 -684 3834 0
-3835 9430 0
-3835 685 0
-9430 -685 3835 0
-3836 9430 0
-3836 686 0
-9430 -686 3836 0
-3837 9430 0
-3837 687 0
-9430 -687 3837 0
-3838 9430 0
-3838 688 0
-9430 -688 3838 0
-3839 9430 0
-3839 689 0
-9430 -689 3839 0
-3840 9430 0
-3840 690 0
-9430 -690 3840 0
-3841 9430 0
-3841 691 0
-9430 -691 3841 0
-3842 9430 0
-3842 692 0
-9430 -692 3842 0
-3843 9431 0
-3843 673 0
-9431 -673 3843 0
-3844 9431 0
-3844 693 0
-9431 -693 3844 0
-3845 9431 0
-3845 694 0
-9431 -694 3845 0
-3846 9431 0
-3846 695 0
-9431 -695 3846 0
-3847 9431 0
-3847 696 0
-9431 -696 3847 0
-3848 9431 0
-3848 697 0
-9431 -697 3848 0
-3849 9431 0
-3849 698 0
-9431 -698 3849 0
-3850 9431 0
-3850 699 0
-9431 -699 3850 0
-3851 9431 0
-3851 700 0
-9431 -700 3851 0
-3852 9431 0
-3852 701 0
-9431 -701 3852 0
-3853 9431 0
-3853 702 0
-9431 -702 3853 0
-3854 9431 0
-3854 703 0
-9431 -703 3854 0
-3855 9431 0
-3855 704 0
-9431 -704 3855 0
-3856 9431 0
-3856 705 0
-9431 -705 3856 0
-3857 9431 0
-3857 706 0
-9431 -706 3857 0
-3858 9431 0
-3858 707 0
-9431 -707 3858 0
-3859 9431 0
-3859 708 0
-9431 -708 3859 0
-3860 9431 0
-3860 709 0
-9431 -709 3860 0
-3861 9431 0
-3861 710 0
-9431 -710 3861 0
-3862 9431 0
-3862 711 0
-9431 -711 3862 0
-3863 9432 0
-3863 674 0
-9432 -674 3863 0
-3864 9432 0
-3864 693 0
-9432 -693 3864 0
-3865 9432 0
-3865 712 0
-9432 -712 3865 0
-3866 9432 0
-3866 713 0
-9432 -713 3866 0
-3867 9432 0
-3867 714 0
-9432 -714 3867 0
-3868 9432 0
-3868 715 0
-9432 -715 3868 0
-3869 9432 0
-3869 716 0
-9432 -716 3869 0
-3870 9432 0
-3870 717 0
-9432 -717 3870 0
-3871 9432 0
-3871 718 0
-9432 -718 3871 0
-3872 9432 0
-3872 719 0
-9432 -719 3872 0
-3873 9432 0
-3873 720 0
-9432 -720 3873 0
-3874 9432 0
-3874 721 0
-9432 -721 3874 0
-3875 9432 0
-3875 722 0
-9432 -722 3875 0
-3876 9432 0
-3876 723 0
-9432 -723 3876 0
-3877 9432 0
-3877 724 0
-9432 -724 3877 0
-3878 9432 0
-3878 725 0
-9432 -725 3878 0
-3879 9432 0
-3879 726 0
-9432 -726 3879 0
-3880 9432 0
-3880 727 0
-9432 -727 3880 0
-3881 9432 0
-3881 728 0
-9432 -728 3881 0
-3882 9432 0
-3882 729 0
-9432 -729 3882 0
-3883 9433 0
-3883 675 0
-9433 -675 3883 0
-3884 9433 0
-3884 694 0
-9433 -694 3884 0
-3885 9433 0
-3885 712 0
-9433 -712 3885 0
-3886 9433 0
-3886 730 0
-9433 -730 3886 0
-3887 9433 0
-3887 731 0
-9433 -731 3887 0
-3888 9433 0
-3888 732 0
-9433 -732 3888 0
-3889 9433 0
-3889 733 0
-9433 -733 3889 0
-3890 9433 0
-3890 734 0
-9433 -734 3890 0
-3891 9433 0
-3891 735 0
-9433 -735 3891 0
-3892 9433 0
-3892 736 0
-9433 -736 3892 0
-3893 9433 0
-3893 737 0
-9433 -737 3893 0
-3894 9433 0
-3894 738 0
-9433 -738 3894 0
-3895 9433 0
-3895 739 0
-9433 -739 3895 0
-3896 9433 0
-3896 740 0
-9433 -740 3896 0
-3897 9433 0
-3897 741 0
-9433 -741 3897 0
-3898 9433 0
-3898 742 0
-9433 -742 3898 0
-3899 9433 0
-3899 743 0
-9433 -743 3899 0
-3900 9433 0
-3900 744 0
-9433 -744 3900 0
-3901 9433 0
-3901 745 0
-9433 -745 3901 0
-3902 9433 0
-3902 746 0
-9433 -746 3902 0
-3903 9434 0
-3903 676 0
-9434 -676 3903 0
-3904 9434 0
-3904 695 0
-9434 -695 3904 0
-3905 9434 0
-3905 713 0
-9434 -713 3905 0
-3906 9434 0
-3906 730 0
-9434 -730 3906 0
-3907 9434 0
-3907 747 0
-9434 -747 3907 0
-3908 9434 0
-3908 748 0
-9434 -748 3908 0
-3909 9434 0
-3909 749 0
-9434 -749 3909 0
-3910 9434 0
-3910 750 0
-9434 -750 3910 0
-3911 9434 0
-3911 751 0
-9434 -751 3911 0
-3912 9434 0
-3912 752 0
-9434 -752 3912 0
-3913 9434 0
-3913 753 0
-9434 -753 3913 0
-3914 9434 0
-3914 754 0
-9434 -754 3914 0
-3915 9434 0
-3915 755 0
-9434 -755 3915 0
-3916 9434 0
-3916 756 0
-9434 -756 3916 0
-3917 9434 0
-3917 757 0
-9434 -757 3917 0
-3918 9434 0
-3918 758 0
-9434 -758 3918 0
-3919 9434 0
-3919 759 0
-9434 -759 3919 0
-3920 9434 0
-3920 760 0
-9434 -760 3920 0
-3921 9434 0
-3921 761 0
-9434 -761 3921 0
-3922 9434 0
-3922 762 0
-9434 -762 3922 0
-3923 9435 0
-3923 677 0
-9435 -677 3923 0
-3924 9435 0
-3924 696 0
-9435 -696 3924 0
-3925 9435 0
-3925 714 0
-9435 -714 3925 0
-3926 9435 0
-3926 731 0
-9435 -731 3926 0
-3927 9435 0
-3927 747 0
-9435 -747 3927 0
-3928 9435 0
-3928 763 0
-9435 -763 3928 0
-3929 9435 0
-3929 764 0
-9435 -764 3929 0
-3930 9435 0
-3930 765 0
-9435 -765 3930 0
-3931 9435 0
-3931 766 0
-9435 -766 3931 0
-3932 9435 0
-3932 767 0
-9435 -767 3932 0
-3933 9435 0
-3933 768 0
-9435 -768 3933 0
-3934 9435 0
-3934 769 0
-9435 -769 3934 0
-3935 9435 0
-3935 770 0
-9435 -770 3935 0
-3936 9435 0
-3936 771 0
-9435 -771 3936 0
-3937 9435 0
-3937 772 0
-9435 -772 3937 0
-3938 9435 0
-3938 773 0
-9435 -773 3938 0
-3939 9435 0
-3939 774 0
-9435 -774 3939 0
-3940 9435 0
-3940 775 0
-9435 -775 3940 0
-3941 9435 0
-3941 776 0
-9435 -776 3941 0
-3942 9435 0
-3942 777 0
-9435 -777 3942 0
-3943 9436 0
-3943 678 0
-9436 -678 3943 0
-3944 9436 0
-3944 697 0
-9436 -697 3944 0
-3945 9436 0
-3945 715 0
-9436 -715 3945 0
-3946 9436 0
-3946 732 0
-9436 -732 3946 0
-3947 9436 0
-3947 748 0
-9436 -748 3947 0
-3948 9436 0
-3948 763 0
-9436 -763 3948 0
-3949 9436 0
-3949 778 0
-9436 -778 3949 0
-3950 9436 0
-3950 779 0
-9436 -779 3950 0
-3951 9436 0
-3951 780 0
-9436 -780 3951 0
-3952 9436 0
-3952 781 0
-9436 -781 3952 0
-3953 9436 0
-3953 782 0
-9436 -782 3953 0
-3954 9436 0
-3954 783 0
-9436 -783 3954 0
-3955 9436 0
-3955 784 0
-9436 -784 3955 0
-3956 9436 0
-3956 785 0
-9436 -785 3956 0
-3957 9436 0
-3957 786 0
-9436 -786 3957 0
-3958 9436 0
-3958 787 0
-9436 -787 3958 0
-3959 9436 0
-3959 788 0
-9436 -788 3959 0
-3960 9436 0
-3960 789 0
-9436 -789 3960 0
-3961 9436 0
-3961 790 0
-9436 -790 3961 0
-3962 9436 0
-3962 791 0
-9436 -791 3962 0
-3963 9437 0
-3963 679 0
-9437 -679 3963 0
-3964 9437 0
-3964 698 0
-9437 -698 3964 0
-3965 9437 0
-3965 716 0
-9437 -716 3965 0
-3966 9437 0
-3966 733 0
-9437 -733 3966 0
-3967 9437 0
-3967 749 0
-9437 -749 3967 0
-3968 9437 0
-3968 764 0
-9437 -764 3968 0
-3969 9437 0
-3969 778 0
-9437 -778 3969 0
-3970 9437 0
-3970 792 0
-9437 -792 3970 0
-3971 9437 0
-3971 793 0
-9437 -793 3971 0
-3972 9437 0
-3972 794 0
-9437 -794 3972 0
-3973 9437 0
-3973 795 0
-9437 -795 3973 0
-3974 9437 0
-3974 796 0
-9437 -796 3974 0
-3975 9437 0
-3975 797 0
-9437 -797 3975 0
-3976 9437 0
-3976 798 0
-9437 -798 3976 0
-3977 9437 0
-3977 799 0
-9437 -799 3977 0
-3978 9437 0
-3978 800 0
-9437 -800 3978 0
-3979 9437 0
-3979 801 0
-9437 -801 3979 0
-3980 9437 0
-3980 802 0
-9437 -802 3980 0
-3981 9437 0
-3981 803 0
-9437 -803 3981 0
-3982 9437 0
-3982 804 0
-9437 -804 3982 0
-3983 9438 0
-3983 680 0
-9438 -680 3983 0
-3984 9438 0
-3984 699 0
-9438 -699 3984 0
-3985 9438 0
-3985 717 0
-9438 -717 3985 0
-3986 9438 0
-3986 734 0
-9438 -734 3986 0
-3987 9438 0
-3987 750 0
-9438 -750 3987 0
-3988 9438 0
-3988 765 0
-9438 -765 3988 0
-3989 9438 0
-3989 779 0
-9438 -779 3989 0
-3990 9438 0
-3990 792 0
-9438 -792 3990 0
-3991 9438 0
-3991 805 0
-9438 -805 3991 0
-3992 9438 0
-3992 806 0
-9438 -806 3992 0
-3993 9438 0
-3993 807 0
-9438 -807 3993 0
-3994 9438 0
-3994 808 0
-9438 -808 3994 0
-3995 9438 0
-3995 809 0
-9438 -809 3995 0
-3996 9438 0
-3996 810 0
-9438 -810 3996 0
-3997 9438 0
-3997 811 0
-9438 -811 3997 0
-3998 9438 0
-3998 812 0
-9438 -812 3998 0
-3999 9438 0
-3999 813 0
-9438 -813 3999 0
-4000 9438 0
-4000 814 0
-9438 -814 4000 0
-4001 9438 0
-4001 815 0
-9438 -815 4001 0
-4002 9438 0
-4002 816 0
-9438 -816 4002 0
-4003 9439 0
-4003 681 0
-9439 -681 4003 0
-4004 9439 0
-4004 700 0
-9439 -700 4004 0
-4005 9439 0
-4005 718 0
-9439 -718 4005 0
-4006 9439 0
-4006 735 0
-9439 -735 4006 0
-4007 9439 0
-4007 751 0
-9439 -751 4007 0
-4008 9439 0
-4008 766 0
-9439 -766 4008 0
-4009 9439 0
-4009 780 0
-9439 -780 4009 0
-4010 9439 0
-4010 793 0
-9439 -793 4010 0
-4011 9439 0
-4011 805 0
-9439 -805 4011 0
-4012 9439 0
-4012 817 0
-9439 -817 4012 0
-4013 9439 0
-4013 818 0
-9439 -818 4013 0
-4014 9439 0
-4014 819 0
-9439 -819 4014 0
-4015 9439 0
-4015 820 0
-9439 -820 4015 0
-4016 9439 0
-4016 821 0
-9439 -821 4016 0
-4017 9439 0
-4017 822 0
-9439 -822 4017 0
-4018 9439 0
-4018 823 0
-9439 -823 4018 0
-4019 9439 0
-4019 824 0
-9439 -824 4019 0
-4020 9439 0
-4020 825 0
-9439 -825 4020 0
-4021 9439 0
-4021 826 0
-9439 -826 4021 0
-4022 9439 0
-4022 827 0
-9439 -827 4022 0
-4023 9440 0
-4023 682 0
-9440 -682 4023 0
-4024 9440 0
-4024 701 0
-9440 -701 4024 0
-4025 9440 0
-4025 719 0
-9440 -719 4025 0
-4026 9440 0
-4026 736 0
-9440 -736 4026 0
-4027 9440 0
-4027 752 0
-9440 -752 4027 0
-4028 9440 0
-4028 767 0
-9440 -767 4028 0
-4029 9440 0
-4029 781 0
-9440 -781 4029 0
-4030 9440 0
-4030 794 0
-9440 -794 4030 0
-4031 9440 0
-4031 806 0
-9440 -806 4031 0
-4032 9440 0
-4032 817 0
-9440 -817 4032 0
-4033 9440 0
-4033 828 0
-9440 -828 4033 0
-4034 9440 0
-4034 829 0
-9440 -829 4034 0
-4035 9440 0
-4035 830 0
-9440 -830 4035 0
-4036 9440 0
-4036 831 0
-9440 -831 4036 0
-4037 9440 0
-4037 832 0
-9440 -832 4037 0
-4038 9440 0
-4038 833 0
-9440 -833 4038 0
-4039 9440 0
-4039 834 0
-9440 -834 4039 0
-4040 9440 0
-4040 835 0
-9440 -835 4040 0
-4041 9440 0
-4041 836 0
-9440 -836 4041 0
-4042 9440 0
-4042 837 0
-9440 -837 4042 0
-4043 9441 0
-4043 683 0
-9441 -683 4043 0
-4044 9441 0
-4044 702 0
-9441 -702 4044 0
-4045 9441 0
-4045 720 0
-9441 -720 4045 0
-4046 9441 0
-4046 737 0
-9441 -737 4046 0
-4047 9441 0
-4047 753 0
-9441 -753 4047 0
-4048 9441 0
-4048 768 0
-9441 -768 4048 0
-4049 9441 0
-4049 782 0
-9441 -782 4049 0
-4050 9441 0
-4050 795 0
-9441 -795 4050 0
-4051 9441 0
-4051 807 0
-9441 -807 4051 0
-4052 9441 0
-4052 818 0
-9441 -818 4052 0
-4053 9441 0
-4053 828 0
-9441 -828 4053 0
-4054 9441 0
-4054 838 0
-9441 -838 4054 0
-4055 9441 0
-4055 839 0
-9441 -839 4055 0
-4056 9441 0
-4056 840 0
-9441 -840 4056 0
-4057 9441 0
-4057 841 0
-9441 -841 4057 0
-4058 9441 0
-4058 842 0
-9441 -842 4058 0
-4059 9441 0
-4059 843 0
-9441 -843 4059 0
-4060 9441 0
-4060 844 0
-9441 -844 4060 0
-4061 9441 0
-4061 845 0
-9441 -845 4061 0
-4062 9441 0
-4062 846 0
-9441 -846 4062 0
-4063 9442 0
-4063 684 0
-9442 -684 4063 0
-4064 9442 0
-4064 703 0
-9442 -703 4064 0
-4065 9442 0
-4065 721 0
-9442 -721 4065 0
-4066 9442 0
-4066 738 0
-9442 -738 4066 0
-4067 9442 0
-4067 754 0
-9442 -754 4067 0
-4068 9442 0
-4068 769 0
-9442 -769 4068 0
-4069 9442 0
-4069 783 0
-9442 -783 4069 0
-4070 9442 0
-4070 796 0
-9442 -796 4070 0
-4071 9442 0
-4071 808 0
-9442 -808 4071 0
-4072 9442 0
-4072 819 0
-9442 -819 4072 0
-4073 9442 0
-4073 829 0
-9442 -829 4073 0
-4074 9442 0
-4074 838 0
-9442 -838 4074 0
-4075 9442 0
-4075 847 0
-9442 -847 4075 0
-4076 9442 0
-4076 848 0
-9442 -848 4076 0
-4077 9442 0
-4077 849 0
-9442 -849 4077 0
-4078 9442 0
-4078 850 0
-9442 -850 4078 0
-4079 9442 0
-4079 851 0
-9442 -851 4079 0
-4080 9442 0
-4080 852 0
-9442 -852 4080 0
-4081 9442 0
-4081 853 0
-9442 -853 4081 0
-4082 9442 0
-4082 854 0
-9442 -854 4082 0
-4083 9443 0
-4083 685 0
-9443 -685 4083 0
-4084 9443 0
-4084 704 0
-9443 -704 4084 0
-4085 9443 0
-4085 722 0
-9443 -722 4085 0
-4086 9443 0
-4086 739 0
-9443 -739 4086 0
-4087 9443 0
-4087 755 0
-9443 -755 4087 0
-4088 9443 0
-4088 770 0
-9443 -770 4088 0
-4089 9443 0
-4089 784 0
-9443 -784 4089 0
-4090 9443 0
-4090 797 0
-9443 -797 4090 0
-4091 9443 0
-4091 809 0
-9443 -809 4091 0
-4092 9443 0
-4092 820 0
-9443 -820 4092 0
-4093 9443 0
-4093 830 0
-9443 -830 4093 0
-4094 9443 0
-4094 839 0
-9443 -839 4094 0
-4095 9443 0
-4095 847 0
-9443 -847 4095 0
-4096 9443 0
-4096 855 0
-9443 -855 4096 0
-4097 9443 0
-4097 856 0
-9443 -856 4097 0
-4098 9443 0
-4098 857 0
-9443 -857 4098 0
-4099 9443 0
-4099 858 0
-9443 -858 4099 0
-4100 9443 0
-4100 859 0
-9443 -859 4100 0
-4101 9443 0
-4101 860 0
-9443 -860 4101 0
-4102 9443 0
-4102 861 0
-9443 -861 4102 0
-4103 9444 0
-4103 686 0
-9444 -686 4103 0
-4104 9444 0
-4104 705 0
-9444 -705 4104 0
-4105 9444 0
-4105 723 0
-9444 -723 4105 0
-4106 9444 0
-4106 740 0
-9444 -740 4106 0
-4107 9444 0
-4107 756 0
-9444 -756 4107 0
-4108 9444 0
-4108 771 0
-9444 -771 4108 0
-4109 9444 0
-4109 785 0
-9444 -785 4109 0
-4110 9444 0
-4110 798 0
-9444 -798 4110 0
-4111 9444 0
-4111 810 0
-9444 -810 4111 0
-4112 9444 0
-4112 821 0
-9444 -821 4112 0
-4113 9444 0
-4113 831 0
-9444 -831 4113 0
-4114 9444 0
-4114 840 0
-9444 -840 4114 0
-4115 9444 0
-4115 848 0
-9444 -848 4115 0
-4116 9444 0
-4116 855 0
-9444 -855 4116 0
-4117 9444 0
-4117 862 0
-9444 -862 4117 0
-4118 9444 0
-4118 863 0
-9444 -863 4118 0
-4119 9444 0
-4119 864 0
-9444 -864 4119 0
-4120 9444 0
-4120 865 0
-9444 -865 4120 0
-4121 9444 0
-4121 866 0
-9444 -866 4121 0
-4122 9444 0
-4122 867 0
-9444 -867 4122 0
-4123 9445 0
-4123 687 0
-9445 -687 4123 0
-4124 9445 0
-4124 706 0
-9445 -706 4124 0
-4125 9445 0
-4125 724 0
-9445 -724 4125 0
-4126 9445 0
-4126 741 0
-9445 -741 4126 0
-4127 9445 0
-4127 757 0
-9445 -757 4127 0
-4128 9445 0
-4128 772 0
-9445 -772 4128 0
-4129 9445 0
-4129 786 0
-9445 -786 4129 0
-4130 9445 0
-4130 799 0
-9445 -799 4130 0
-4131 9445 0
-4131 811 0
-9445 -811 4131 0
-4132 9445 0
-4132 822 0
-9445 -822 4132 0
-4133 9445 0
-4133 832 0
-9445 -832 4133 0
-4134 9445 0
-4134 841 0
-9445 -841 4134 0
-4135 9445 0
-4135 849 0
-9445 -849 4135 0
-4136 9445 0
-4136 856 0
-9445 -856 4136 0
-4137 9445 0
-4137 862 0
-9445 -862 4137 0
-4138 9445 0
-4138 868 0
-9445 -868 4138 0
-4139 9445 0
-4139 869 0
-9445 -869 4139 0
-4140 9445 0
-4140 870 0
-9445 -870 4140 0
-4141 9445 0
-4141 871 0
-9445 -871 4141 0
-4142 9445 0
-4142 872 0
-9445 -872 4142 0
-4143 9446 0
-4143 688 0
-9446 -688 4143 0
-4144 9446 0
-4144 707 0
-9446 -707 4144 0
-4145 9446 0
-4145 725 0
-9446 -725 4145 0
-4146 9446 0
-4146 742 0
-9446 -742 4146 0
-4147 9446 0
-4147 758 0
-9446 -758 4147 0
-4148 9446 0
-4148 773 0
-9446 -773 4148 0
-4149 9446 0
-4149 787 0
-9446 -787 4149 0
-4150 9446 0
-4150 800 0
-9446 -800 4150 0
-4151 9446 0
-4151 812 0
-9446 -812 4151 0
-4152 9446 0
-4152 823 0
-9446 -823 4152 0
-4153 9446 0
-4153 833 0
-9446 -833 4153 0
-4154 9446 0
-4154 842 0
-9446 -842 4154 0
-4155 9446 0
-4155 850 0
-9446 -850 4155 0
-4156 9446 0
-4156 857 0
-9446 -857 4156 0
-4157 9446 0
-4157 863 0
-9446 -863 4157 0
-4158 9446 0
-4158 868 0
-9446 -868 4158 0
-4159 9446 0
-4159 873 0
-9446 -873 4159 0
-4160 9446 0
-4160 874 0
-9446 -874 4160 0
-4161 9446 0
-4161 875 0
-9446 -875 4161 0
-4162 9446 0
-4162 876 0
-9446 -876 4162 0
-4163 9447 0
-4163 689 0
-9447 -689 4163 0
-4164 9447 0
-4164 708 0
-9447 -708 4164 0
-4165 9447 0
-4165 726 0
-9447 -726 4165 0
-4166 9447 0
-4166 743 0
-9447 -743 4166 0
-4167 9447 0
-4167 759 0
-9447 -759 4167 0
-4168 9447 0
-4168 774 0
-9447 -774 4168 0
-4169 9447 0
-4169 788 0
-9447 -788 4169 0
-4170 9447 0
-4170 801 0
-9447 -801 4170 0
-4171 9447 0
-4171 813 0
-9447 -813 4171 0
-4172 9447 0
-4172 824 0
-9447 -824 4172 0
-4173 9447 0
-4173 834 0
-9447 -834 4173 0
-4174 9447 0
-4174 843 0
-9447 -843 4174 0
-4175 9447 0
-4175 851 0
-9447 -851 4175 0
-4176 9447 0
-4176 858 0
-9447 -858 4176 0
-4177 9447 0
-4177 864 0
-9447 -864 4177 0
-4178 9447 0
-4178 869 0
-9447 -869 4178 0
-4179 9447 0
-4179 873 0
-9447 -873 4179 0
-4180 9447 0
-4180 877 0
-9447 -877 4180 0
-4181 9447 0
-4181 878 0
-9447 -878 4181 0
-4182 9447 0
-4182 879 0
-9447 -879 4182 0
-4183 9448 0
-4183 690 0
-9448 -690 4183 0
-4184 9448 0
-4184 709 0
-9448 -709 4184 0
-4185 9448 0
-4185 727 0
-9448 -727 4185 0
-4186 9448 0
-4186 744 0
-9448 -744 4186 0
-4187 9448 0
-4187 760 0
-9448 -760 4187 0
-4188 9448 0
-4188 775 0
-9448 -775 4188 0
-4189 9448 0
-4189 789 0
-9448 -789 4189 0
-4190 9448 0
-4190 802 0
-9448 -802 4190 0
-4191 9448 0
-4191 814 0
-9448 -814 4191 0
-4192 9448 0
-4192 825 0
-9448 -825 4192 0
-4193 9448 0
-4193 835 0
-9448 -835 4193 0
-4194 9448 0
-4194 844 0
-9448 -844 4194 0
-4195 9448 0
-4195 852 0
-9448 -852 4195 0
-4196 9448 0
-4196 859 0
-9448 -859 4196 0
-4197 9448 0
-4197 865 0
-9448 -865 4197 0
-4198 9448 0
-4198 870 0
-9448 -870 4198 0
-4199 9448 0
-4199 874 0
-9448 -874 4199 0
-4200 9448 0
-4200 877 0
-9448 -877 4200 0
-4201 9448 0
-4201 880 0
-9448 -880 4201 0
-4202 9448 0
-4202 881 0
-9448 -881 4202 0
-4203 9449 0
-4203 691 0
-9449 -691 4203 0
-4204 9449 0
-4204 710 0
-9449 -710 4204 0
-4205 9449 0
-4205 728 0
-9449 -728 4205 0
-4206 9449 0
-4206 745 0
-9449 -745 4206 0
-4207 9449 0
-4207 761 0
-9449 -761 4207 0
-4208 9449 0
-4208 776 0
-9449 -776 4208 0
-4209 9449 0
-4209 790 0
-9449 -790 4209 0
-4210 9449 0
-4210 803 0
-9449 -803 4210 0
-4211 9449 0
-4211 815 0
-9449 -815 4211 0
-4212 9449 0
-4212 826 0
-9449 -826 4212 0
-4213 9449 0
-4213 836 0
-9449 -836 4213 0
-4214 9449 0
-4214 845 0
-9449 -845 4214 0
-4215 9449 0
-4215 853 0
-9449 -853 4215 0
-4216 9449 0
-4216 860 0
-9449 -860 4216 0
-4217 9449 0
-4217 866 0
-9449 -866 4217 0
-4218 9449 0
-4218 871 0
-9449 -871 4218 0
-4219 9449 0
-4219 875 0
-9449 -875 4219 0
-4220 9449 0
-4220 878 0
-9449 -878 4220 0
-4221 9449 0
-4221 880 0
-9449 -880 4221 0
-4222 9449 0
-4222 882 0
-9449 -882 4222 0
-4223 9450 0
-4223 692 0
-9450 -692 4223 0
-4224 9450 0
-4224 711 0
-9450 -711 4224 0
-4225 9450 0
-4225 729 0
-9450 -729 4225 0
-4226 9450 0
-4226 746 0
-9450 -746 4226 0
-4227 9450 0
-4227 762 0
-9450 -762 4227 0
-4228 9450 0
-4228 777 0
-9450 -777 4228 0
-4229 9450 0
-4229 791 0
-9450 -791 4229 0
-4230 9450 0
-4230 804 0
-9450 -804 4230 0
-4231 9450 0
-4231 816 0
-9450 -816 4231 0
-4232 9450 0
-4232 827 0
-9450 -827 4232 0
-4233 9450 0
-4233 837 0
-9450 -837 4233 0
-4234 9450 0
-4234 846 0
-9450 -846 4234 0
-4235 9450 0
-4235 854 0
-9450 -854 4235 0
-4236 9450 0
-4236 861 0
-9450 -861 4236 0
-4237 9450 0
-4237 867 0
-9450 -867 4237 0
-4238 9450 0
-4238 872 0
-9450 -872 4238 0
-4239 9450 0
-4239 876 0
-9450 -876 4239 0
-4240 9450 0
-4240 879 0
-9450 -879 4240 0
-4241 9450 0
-4241 881 0
-9450 -881 4241 0
-4242 9450 0
-4242 882 0
-9450 -882 4242 0
-4243 9451 0
-4243 673 0
-9451 -673 4243 0
-4244 9451 0
-4244 674 0
-9451 -674 4244 0
-4245 9451 0
-4245 675 0
-9451 -675 4245 0
-4246 9451 0
-4246 676 0
-9451 -676 4246 0
-4247 9451 0
-4247 677 0
-9451 -677 4247 0
-4248 9451 0
-4248 678 0
-9451 -678 4248 0
-4249 9451 0
-4249 679 0
-9451 -679 4249 0
-4250 9451 0
-4250 680 0
-9451 -680 4250 0
-4251 9451 0
-4251 681 0
-9451 -681 4251 0
-4252 9451 0
-4252 682 0
-9451 -682 4252 0
-4253 9451 0
-4253 683 0
-9451 -683 4253 0
-4254 9451 0
-4254 684 0
-9451 -684 4254 0
-4255 9451 0
-4255 685 0
-9451 -685 4255 0
-4256 9451 0
-4256 686 0
-9451 -686 4256 0
-4257 9451 0
-4257 687 0
-9451 -687 4257 0
-4258 9451 0
-4258 688 0
-9451 -688 4258 0
-4259 9451 0
-4259 689 0
-9451 -689 4259 0
-4260 9451 0
-4260 690 0
-9451 -690 4260 0
-4261 9451 0
-4261 691 0
-9451 -691 4261 0
-4262 9451 0
-4262 692 0
-9451 -692 4262 0
-4263 9452 0
-4263 673 0
-9452 -673 4263 0
-4264 9452 0
-4264 693 0
-9452 -693 4264 0
-4265 9452 0
-4265 694 0
-9452 -694 4265 0
-4266 9452 0
-4266 695 0
-9452 -695 4266 0
-4267 9452 0
-4267 696 0
-9452 -696 4267 0
-4268 9452 0
-4268 697 0
-9452 -697 4268 0
-4269 9452 0
-4269 698 0
-9452 -698 4269 0
-4270 9452 0
-4270 699 0
-9452 -699 4270 0
-4271 9452 0
-4271 700 0
-9452 -700 4271 0
-4272 9452 0
-4272 701 0
-9452 -701 4272 0
-4273 9452 0
-4273 702 0
-9452 -702 4273 0
-4274 9452 0
-4274 703 0
-9452 -703 4274 0
-4275 9452 0
-4275 704 0
-9452 -704 4275 0
-4276 9452 0
-4276 705 0
-9452 -705 4276 0
-4277 9452 0
-4277 706 0
-9452 -706 4277 0
-4278 9452 0
-4278 707 0
-9452 -707 4278 0
-4279 9452 0
-4279 708 0
-9452 -708 4279 0
-4280 9452 0
-4280 709 0
-9452 -709 4280 0
-4281 9452 0
-4281 710 0
-9452 -710 4281 0
-4282 9452 0
-4282 711 0
-9452 -711 4282 0
-4283 9453 0
-4283 674 0
-9453 -674 4283 0
-4284 9453 0
-4284 693 0
-9453 -693 4284 0
-4285 9453 0
-4285 712 0
-9453 -712 4285 0
-4286 9453 0
-4286 713 0
-9453 -713 4286 0
-4287 9453 0
-4287 714 0
-9453 -714 4287 0
-4288 9453 0
-4288 715 0
-9453 -715 4288 0
-4289 9453 0
-4289 716 0
-9453 -716 4289 0
-4290 9453 0
-4290 717 0
-9453 -717 4290 0
-4291 9453 0
-4291 718 0
-9453 -718 4291 0
-4292 9453 0
-4292 719 0
-9453 -719 4292 0
-4293 9453 0
-4293 720 0
-9453 -720 4293 0
-4294 9453 0
-4294 721 0
-9453 -721 4294 0
-4295 9453 0
-4295 722 0
-9453 -722 4295 0
-4296 9453 0
-4296 723 0
-9453 -723 4296 0
-4297 9453 0
-4297 724 0
-9453 -724 4297 0
-4298 9453 0
-4298 725 0
-9453 -725 4298 0
-4299 9453 0
-4299 726 0
-9453 -726 4299 0
-4300 9453 0
-4300 727 0
-9453 -727 4300 0
-4301 9453 0
-4301 728 0
-9453 -728 4301 0
-4302 9453 0
-4302 729 0
-9453 -729 4302 0
-4303 9454 0
-4303 675 0
-9454 -675 4303 0
-4304 9454 0
-4304 694 0
-9454 -694 4304 0
-4305 9454 0
-4305 712 0
-9454 -712 4305 0
-4306 9454 0
-4306 730 0
-9454 -730 4306 0
-4307 9454 0
-4307 731 0
-9454 -731 4307 0
-4308 9454 0
-4308 732 0
-9454 -732 4308 0
-4309 9454 0
-4309 733 0
-9454 -733 4309 0
-4310 9454 0
-4310 734 0
-9454 -734 4310 0
-4311 9454 0
-4311 735 0
-9454 -735 4311 0
-4312 9454 0
-4312 736 0
-9454 -736 4312 0
-4313 9454 0
-4313 737 0
-9454 -737 4313 0
-4314 9454 0
-4314 738 0
-9454 -738 4314 0
-4315 9454 0
-4315 739 0
-9454 -739 4315 0
-4316 9454 0
-4316 740 0
-9454 -740 4316 0
-4317 9454 0
-4317 741 0
-9454 -741 4317 0
-4318 9454 0
-4318 742 0
-9454 -742 4318 0
-4319 9454 0
-4319 743 0
-9454 -743 4319 0
-4320 9454 0
-4320 744 0
-9454 -744 4320 0
-4321 9454 0
-4321 745 0
-9454 -745 4321 0
-4322 9454 0
-4322 746 0
-9454 -746 4322 0
-4323 9455 0
-4323 676 0
-9455 -676 4323 0
-4324 9455 0
-4324 695 0
-9455 -695 4324 0
-4325 9455 0
-4325 713 0
-9455 -713 4325 0
-4326 9455 0
-4326 730 0
-9455 -730 4326 0
-4327 9455 0
-4327 747 0
-9455 -747 4327 0
-4328 9455 0
-4328 748 0
-9455 -748 4328 0
-4329 9455 0
-4329 749 0
-9455 -749 4329 0
-4330 9455 0
-4330 750 0
-9455 -750 4330 0
-4331 9455 0
-4331 751 0
-9455 -751 4331 0
-4332 9455 0
-4332 752 0
-9455 -752 4332 0
-4333 9455 0
-4333 753 0
-9455 -753 4333 0
-4334 9455 0
-4334 754 0
-9455 -754 4334 0
-4335 9455 0
-4335 755 0
-9455 -755 4335 0
-4336 9455 0
-4336 756 0
-9455 -756 4336 0
-4337 9455 0
-4337 757 0
-9455 -757 4337 0
-4338 9455 0
-4338 758 0
-9455 -758 4338 0
-4339 9455 0
-4339 759 0
-9455 -759 4339 0
-4340 9455 0
-4340 760 0
-9455 -760 4340 0
-4341 9455 0
-4341 761 0
-9455 -761 4341 0
-4342 9455 0
-4342 762 0
-9455 -762 4342 0
-4343 9456 0
-4343 677 0
-9456 -677 4343 0
-4344 9456 0
-4344 696 0
-9456 -696 4344 0
-4345 9456 0
-4345 714 0
-9456 -714 4345 0
-4346 9456 0
-4346 731 0
-9456 -731 4346 0
-4347 9456 0
-4347 747 0
-9456 -747 4347 0
-4348 9456 0
-4348 763 0
-9456 -763 4348 0
-4349 9456 0
-4349 764 0
-9456 -764 4349 0
-4350 9456 0
-4350 765 0
-9456 -765 4350 0
-4351 9456 0
-4351 766 0
-9456 -766 4351 0
-4352 9456 0
-4352 767 0
-9456 -767 4352 0
-4353 9456 0
-4353 768 0
-9456 -768 4353 0
-4354 9456 0
-4354 769 0
-9456 -769 4354 0
-4355 9456 0
-4355 770 0
-9456 -770 4355 0
-4356 9456 0
-4356 771 0
-9456 -771 4356 0
-4357 9456 0
-4357 772 0
-9456 -772 4357 0
-4358 9456 0
-4358 773 0
-9456 -773 4358 0
-4359 9456 0
-4359 774 0
-9456 -774 4359 0
-4360 9456 0
-4360 775 0
-9456 -775 4360 0
-4361 9456 0
-4361 776 0
-9456 -776 4361 0
-4362 9456 0
-4362 777 0
-9456 -777 4362 0
-4363 9457 0
-4363 678 0
-9457 -678 4363 0
-4364 9457 0
-4364 697 0
-9457 -697 4364 0
-4365 9457 0
-4365 715 0
-9457 -715 4365 0
-4366 9457 0
-4366 732 0
-9457 -732 4366 0
-4367 9457 0
-4367 748 0
-9457 -748 4367 0
-4368 9457 0
-4368 763 0
-9457 -763 4368 0
-4369 9457 0
-4369 778 0
-9457 -778 4369 0
-4370 9457 0
-4370 779 0
-9457 -779 4370 0
-4371 9457 0
-4371 780 0
-9457 -780 4371 0
-4372 9457 0
-4372 781 0
-9457 -781 4372 0
-4373 9457 0
-4373 782 0
-9457 -782 4373 0
-4374 9457 0
-4374 783 0
-9457 -783 4374 0
-4375 9457 0
-4375 784 0
-9457 -784 4375 0
-4376 9457 0
-4376 785 0
-9457 -785 4376 0
-4377 9457 0
-4377 786 0
-9457 -786 4377 0
-4378 9457 0
-4378 787 0
-9457 -787 4378 0
-4379 9457 0
-4379 788 0
-9457 -788 4379 0
-4380 9457 0
-4380 789 0
-9457 -789 4380 0
-4381 9457 0
-4381 790 0
-9457 -790 4381 0
-4382 9457 0
-4382 791 0
-9457 -791 4382 0
-4383 9458 0
-4383 679 0
-9458 -679 4383 0
-4384 9458 0
-4384 698 0
-9458 -698 4384 0
-4385 9458 0
-4385 716 0
-9458 -716 4385 0
-4386 9458 0
-4386 733 0
-9458 -733 4386 0
-4387 9458 0
-4387 749 0
-9458 -749 4387 0
-4388 9458 0
-4388 764 0
-9458 -764 4388 0
-4389 9458 0
-4389 778 0
-9458 -778 4389 0
-4390 9458 0
-4390 792 0
-9458 -792 4390 0
-4391 9458 0
-4391 793 0
-9458 -793 4391 0
-4392 9458 0
-4392 794 0
-9458 -794 4392 0
-4393 9458 0
-4393 795 0
-9458 -795 4393 0
-4394 9458 0
-4394 796 0
-9458 -796 4394 0
-4395 9458 0
-4395 797 0
-9458 -797 4395 0
-4396 9458 0
-4396 798 0
-9458 -798 4396 0
-4397 9458 0
-4397 799 0
-9458 -799 4397 0
-4398 9458 0
-4398 800 0
-9458 -800 4398 0
-4399 9458 0
-4399 801 0
-9458 -801 4399 0
-4400 9458 0
-4400 802 0
-9458 -802 4400 0
-4401 9458 0
-4401 803 0
-9458 -803 4401 0
-4402 9458 0
-4402 804 0
-9458 -804 4402 0
-4403 9459 0
-4403 680 0
-9459 -680 4403 0
-4404 9459 0
-4404 699 0
-9459 -699 4404 0
-4405 9459 0
-4405 717 0
-9459 -717 4405 0
-4406 9459 0
-4406 734 0
-9459 -734 4406 0
-4407 9459 0
-4407 750 0
-9459 -750 4407 0
-4408 9459 0
-4408 765 0
-9459 -765 4408 0
-4409 9459 0
-4409 779 0
-9459 -779 4409 0
-4410 9459 0
-4410 792 0
-9459 -792 4410 0
-4411 9459 0
-4411 805 0
-9459 -805 4411 0
-4412 9459 0
-4412 806 0
-9459 -806 4412 0
-4413 9459 0
-4413 807 0
-9459 -807 4413 0
-4414 9459 0
-4414 808 0
-9459 -808 4414 0
-4415 9459 0
-4415 809 0
-9459 -809 4415 0
-4416 9459 0
-4416 810 0
-9459 -810 4416 0
-4417 9459 0
-4417 811 0
-9459 -811 4417 0
-4418 9459 0
-4418 812 0
-9459 -812 4418 0
-4419 9459 0
-4419 813 0
-9459 -813 4419 0
-4420 9459 0
-4420 814 0
-9459 -814 4420 0
-4421 9459 0
-4421 815 0
-9459 -815 4421 0
-4422 9459 0
-4422 816 0
-9459 -816 4422 0
-4423 9460 0
-4423 681 0
-9460 -681 4423 0
-4424 9460 0
-4424 700 0
-9460 -700 4424 0
-4425 9460 0
-4425 718 0
-9460 -718 4425 0
-4426 9460 0
-4426 735 0
-9460 -735 4426 0
-4427 9460 0
-4427 751 0
-9460 -751 4427 0
-4428 9460 0
-4428 766 0
-9460 -766 4428 0
-4429 9460 0
-4429 780 0
-9460 -780 4429 0
-4430 9460 0
-4430 793 0
-9460 -793 4430 0
-4431 9460 0
-4431 805 0
-9460 -805 4431 0
-4432 9460 0
-4432 817 0
-9460 -817 4432 0
-4433 9460 0
-4433 818 0
-9460 -818 4433 0
-4434 9460 0
-4434 819 0
-9460 -819 4434 0
-4435 9460 0
-4435 820 0
-9460 -820 4435 0
-4436 9460 0
-4436 821 0
-9460 -821 4436 0
-4437 9460 0
-4437 822 0
-9460 -822 4437 0
-4438 9460 0
-4438 823 0
-9460 -823 4438 0
-4439 9460 0
-4439 824 0
-9460 -824 4439 0
-4440 9460 0
-4440 825 0
-9460 -825 4440 0
-4441 9460 0
-4441 826 0
-9460 -826 4441 0
-4442 9460 0
-4442 827 0
-9460 -827 4442 0
-4443 9461 0
-4443 682 0
-9461 -682 4443 0
-4444 9461 0
-4444 701 0
-9461 -701 4444 0
-4445 9461 0
-4445 719 0
-9461 -719 4445 0
-4446 9461 0
-4446 736 0
-9461 -736 4446 0
-4447 9461 0
-4447 752 0
-9461 -752 4447 0
-4448 9461 0
-4448 767 0
-9461 -767 4448 0
-4449 9461 0
-4449 781 0
-9461 -781 4449 0
-4450 9461 0
-4450 794 0
-9461 -794 4450 0
-4451 9461 0
-4451 806 0
-9461 -806 4451 0
-4452 9461 0
-4452 817 0
-9461 -817 4452 0
-4453 9461 0
-4453 828 0
-9461 -828 4453 0
-4454 9461 0
-4454 829 0
-9461 -829 4454 0
-4455 9461 0
-4455 830 0
-9461 -830 4455 0
-4456 9461 0
-4456 831 0
-9461 -831 4456 0
-4457 9461 0
-4457 832 0
-9461 -832 4457 0
-4458 9461 0
-4458 833 0
-9461 -833 4458 0
-4459 9461 0
-4459 834 0
-9461 -834 4459 0
-4460 9461 0
-4460 835 0
-9461 -835 4460 0
-4461 9461 0
-4461 836 0
-9461 -836 4461 0
-4462 9461 0
-4462 837 0
-9461 -837 4462 0
-4463 9462 0
-4463 683 0
-9462 -683 4463 0
-4464 9462 0
-4464 702 0
-9462 -702 4464 0
-4465 9462 0
-4465 720 0
-9462 -720 4465 0
-4466 9462 0
-4466 737 0
-9462 -737 4466 0
-4467 9462 0
-4467 753 0
-9462 -753 4467 0
-4468 9462 0
-4468 768 0
-9462 -768 4468 0
-4469 9462 0
-4469 782 0
-9462 -782 4469 0
-4470 9462 0
-4470 795 0
-9462 -795 4470 0
-4471 9462 0
-4471 807 0
-9462 -807 4471 0
-4472 9462 0
-4472 818 0
-9462 -818 4472 0
-4473 9462 0
-4473 828 0
-9462 -828 4473 0
-4474 9462 0
-4474 838 0
-9462 -838 4474 0
-4475 9462 0
-4475 839 0
-9462 -839 4475 0
-4476 9462 0
-4476 840 0
-9462 -840 4476 0
-4477 9462 0
-4477 841 0
-9462 -841 4477 0
-4478 9462 0
-4478 842 0
-9462 -842 4478 0
-4479 9462 0
-4479 843 0
-9462 -843 4479 0
-4480 9462 0
-4480 844 0
-9462 -844 4480 0
-4481 9462 0
-4481 845 0
-9462 -845 4481 0
-4482 9462 0
-4482 846 0
-9462 -846 4482 0
-4483 9463 0
-4483 684 0
-9463 -684 4483 0
-4484 9463 0
-4484 703 0
-9463 -703 4484 0
-4485 9463 0
-4485 721 0
-9463 -721 4485 0
-4486 9463 0
-4486 738 0
-9463 -738 4486 0
-4487 9463 0
-4487 754 0
-9463 -754 4487 0
-4488 9463 0
-4488 769 0
-9463 -769 4488 0
-4489 9463 0
-4489 783 0
-9463 -783 4489 0
-4490 9463 0
-4490 796 0
-9463 -796 4490 0
-4491 9463 0
-4491 808 0
-9463 -808 4491 0
-4492 9463 0
-4492 819 0
-9463 -819 4492 0
-4493 9463 0
-4493 829 0
-9463 -829 4493 0
-4494 9463 0
-4494 838 0
-9463 -838 4494 0
-4495 9463 0
-4495 847 0
-9463 -847 4495 0
-4496 9463 0
-4496 848 0
-9463 -848 4496 0
-4497 9463 0
-4497 849 0
-9463 -849 4497 0
-4498 9463 0
-4498 850 0
-9463 -850 4498 0
-4499 9463 0
-4499 851 0
-9463 -851 4499 0
-4500 9463 0
-4500 852 0
-9463 -852 4500 0
-4501 9463 0
-4501 853 0
-9463 -853 4501 0
-4502 9463 0
-4502 854 0
-9463 -854 4502 0
-4503 9464 0
-4503 685 0
-9464 -685 4503 0
-4504 9464 0
-4504 704 0
-9464 -704 4504 0
-4505 9464 0
-4505 722 0
-9464 -722 4505 0
-4506 9464 0
-4506 739 0
-9464 -739 4506 0
-4507 9464 0
-4507 755 0
-9464 -755 4507 0
-4508 9464 0
-4508 770 0
-9464 -770 4508 0
-4509 9464 0
-4509 784 0
-9464 -784 4509 0
-4510 9464 0
-4510 797 0
-9464 -797 4510 0
-4511 9464 0
-4511 809 0
-9464 -809 4511 0
-4512 9464 0
-4512 820 0
-9464 -820 4512 0
-4513 9464 0
-4513 830 0
-9464 -830 4513 0
-4514 9464 0
-4514 839 0
-9464 -839 4514 0
-4515 9464 0
-4515 847 0
-9464 -847 4515 0
-4516 9464 0
-4516 855 0
-9464 -855 4516 0
-4517 9464 0
-4517 856 0
-9464 -856 4517 0
-4518 9464 0
-4518 857 0
-9464 -857 4518 0
-4519 9464 0
-4519 858 0
-9464 -858 4519 0
-4520 9464 0
-4520 859 0
-9464 -859 4520 0
-4521 9464 0
-4521 860 0
-9464 -860 4521 0
-4522 9464 0
-4522 861 0
-9464 -861 4522 0
-4523 9465 0
-4523 686 0
-9465 -686 4523 0
-4524 9465 0
-4524 705 0
-9465 -705 4524 0
-4525 9465 0
-4525 723 0
-9465 -723 4525 0
-4526 9465 0
-4526 740 0
-9465 -740 4526 0
-4527 9465 0
-4527 756 0
-9465 -756 4527 0
-4528 9465 0
-4528 771 0
-9465 -771 4528 0
-4529 9465 0
-4529 785 0
-9465 -785 4529 0
-4530 9465 0
-4530 798 0
-9465 -798 4530 0
-4531 9465 0
-4531 810 0
-9465 -810 4531 0
-4532 9465 0
-4532 821 0
-9465 -821 4532 0
-4533 9465 0
-4533 831 0
-9465 -831 4533 0
-4534 9465 0
-4534 840 0
-9465 -840 4534 0
-4535 9465 0
-4535 848 0
-9465 -848 4535 0
-4536 9465 0
-4536 855 0
-9465 -855 4536 0
-4537 9465 0
-4537 862 0
-9465 -862 4537 0
-4538 9465 0
-4538 863 0
-9465 -863 4538 0
-4539 9465 0
-4539 864 0
-9465 -864 4539 0
-4540 9465 0
-4540 865 0
-9465 -865 4540 0
-4541 9465 0
-4541 866 0
-9465 -866 4541 0
-4542 9465 0
-4542 867 0
-9465 -867 4542 0
-4543 9466 0
-4543 687 0
-9466 -687 4543 0
-4544 9466 0
-4544 706 0
-9466 -706 4544 0
-4545 9466 0
-4545 724 0
-9466 -724 4545 0
-4546 9466 0
-4546 741 0
-9466 -741 4546 0
-4547 9466 0
-4547 757 0
-9466 -757 4547 0
-4548 9466 0
-4548 772 0
-9466 -772 4548 0
-4549 9466 0
-4549 786 0
-9466 -786 4549 0
-4550 9466 0
-4550 799 0
-9466 -799 4550 0
-4551 9466 0
-4551 811 0
-9466 -811 4551 0
-4552 9466 0
-4552 822 0
-9466 -822 4552 0
-4553 9466 0
-4553 832 0
-9466 -832 4553 0
-4554 9466 0
-4554 841 0
-9466 -841 4554 0
-4555 9466 0
-4555 849 0
-9466 -849 4555 0
-4556 9466 0
-4556 856 0
-9466 -856 4556 0
-4557 9466 0
-4557 862 0
-9466 -862 4557 0
-4558 9466 0
-4558 868 0
-9466 -868 4558 0
-4559 9466 0
-4559 869 0
-9466 -869 4559 0
-4560 9466 0
-4560 870 0
-9466 -870 4560 0
-4561 9466 0
-4561 871 0
-9466 -871 4561 0
-4562 9466 0
-4562 872 0
-9466 -872 4562 0
-4563 9467 0
-4563 688 0
-9467 -688 4563 0
-4564 9467 0
-4564 707 0
-9467 -707 4564 0
-4565 9467 0
-4565 725 0
-9467 -725 4565 0
-4566 9467 0
-4566 742 0
-9467 -742 4566 0
-4567 9467 0
-4567 758 0
-9467 -758 4567 0
-4568 9467 0
-4568 773 0
-9467 -773 4568 0
-4569 9467 0
-4569 787 0
-9467 -787 4569 0
-4570 9467 0
-4570 800 0
-9467 -800 4570 0
-4571 9467 0
-4571 812 0
-9467 -812 4571 0
-4572 9467 0
-4572 823 0
-9467 -823 4572 0
-4573 9467 0
-4573 833 0
-9467 -833 4573 0
-4574 9467 0
-4574 842 0
-9467 -842 4574 0
-4575 9467 0
-4575 850 0
-9467 -850 4575 0
-4576 9467 0
-4576 857 0
-9467 -857 4576 0
-4577 9467 0
-4577 863 0
-9467 -863 4577 0
-4578 9467 0
-4578 868 0
-9467 -868 4578 0
-4579 9467 0
-4579 873 0
-9467 -873 4579 0
-4580 9467 0
-4580 874 0
-9467 -874 4580 0
-4581 9467 0
-4581 875 0
-9467 -875 4581 0
-4582 9467 0
-4582 876 0
-9467 -876 4582 0
-4583 9468 0
-4583 689 0
-9468 -689 4583 0
-4584 9468 0
-4584 708 0
-9468 -708 4584 0
-4585 9468 0
-4585 726 0
-9468 -726 4585 0
-4586 9468 0
-4586 743 0
-9468 -743 4586 0
-4587 9468 0
-4587 759 0
-9468 -759 4587 0
-4588 9468 0
-4588 774 0
-9468 -774 4588 0
-4589 9468 0
-4589 788 0
-9468 -788 4589 0
-4590 9468 0
-4590 801 0
-9468 -801 4590 0
-4591 9468 0
-4591 813 0
-9468 -813 4591 0
-4592 9468 0
-4592 824 0
-9468 -824 4592 0
-4593 9468 0
-4593 834 0
-9468 -834 4593 0
-4594 9468 0
-4594 843 0
-9468 -843 4594 0
-4595 9468 0
-4595 851 0
-9468 -851 4595 0
-4596 9468 0
-4596 858 0
-9468 -858 4596 0
-4597 9468 0
-4597 864 0
-9468 -864 4597 0
-4598 9468 0
-4598 869 0
-9468 -869 4598 0
-4599 9468 0
-4599 873 0
-9468 -873 4599 0
-4600 9468 0
-4600 877 0
-9468 -877 4600 0
-4601 9468 0
-4601 878 0
-9468 -878 4601 0
-4602 9468 0
-4602 879 0
-9468 -879 4602 0
-4603 9469 0
-4603 690 0
-9469 -690 4603 0
-4604 9469 0
-4604 709 0
-9469 -709 4604 0
-4605 9469 0
-4605 727 0
-9469 -727 4605 0
-4606 9469 0
-4606 744 0
-9469 -744 4606 0
-4607 9469 0
-4607 760 0
-9469 -760 4607 0
-4608 9469 0
-4608 775 0
-9469 -775 4608 0
-4609 9469 0
-4609 789 0
-9469 -789 4609 0
-4610 9469 0
-4610 802 0
-9469 -802 4610 0
-4611 9469 0
-4611 814 0
-9469 -814 4611 0
-4612 9469 0
-4612 825 0
-9469 -825 4612 0
-4613 9469 0
-4613 835 0
-9469 -835 4613 0
-4614 9469 0
-4614 844 0
-9469 -844 4614 0
-4615 9469 0
-4615 852 0
-9469 -852 4615 0
-4616 9469 0
-4616 859 0
-9469 -859 4616 0
-4617 9469 0
-4617 865 0
-9469 -865 4617 0
-4618 9469 0
-4618 870 0
-9469 -870 4618 0
-4619 9469 0
-4619 874 0
-9469 -874 4619 0
-4620 9469 0
-4620 877 0
-9469 -877 4620 0
-4621 9469 0
-4621 880 0
-9469 -880 4621 0
-4622 9469 0
-4622 881 0
-9469 -881 4622 0
-4623 9470 0
-4623 691 0
-9470 -691 4623 0
-4624 9470 0
-4624 710 0
-9470 -710 4624 0
-4625 9470 0
-4625 728 0
-9470 -728 4625 0
-4626 9470 0
-4626 745 0
-9470 -745 4626 0
-4627 9470 0
-4627 761 0
-9470 -761 4627 0
-4628 9470 0
-4628 776 0
-9470 -776 4628 0
-4629 9470 0
-4629 790 0
-9470 -790 4629 0
-4630 9470 0
-4630 803 0
-9470 -803 4630 0
-4631 9470 0
-4631 815 0
-9470 -815 4631 0
-4632 9470 0
-4632 826 0
-9470 -826 4632 0
-4633 9470 0
-4633 836 0
-9470 -836 4633 0
-4634 9470 0
-4634 845 0
-9470 -845 4634 0
-4635 9470 0
-4635 853 0
-9470 -853 4635 0
-4636 9470 0
-4636 860 0
-9470 -860 4636 0
-4637 9470 0
-4637 866 0
-9470 -866 4637 0
-4638 9470 0
-4638 871 0
-9470 -871 4638 0
-4639 9470 0
-4639 875 0
-9470 -875 4639 0
-4640 9470 0
-4640 878 0
-9470 -878 4640 0
-4641 9470 0
-4641 880 0
-9470 -880 4641 0
-4642 9470 0
-4642 882 0
-9470 -882 4642 0
-4643 9471 0
-4643 692 0
-9471 -692 4643 0
-4644 9471 0
-4644 711 0
-9471 -711 4644 0
-4645 9471 0
-4645 729 0
-9471 -729 4645 0
-4646 9471 0
-4646 746 0
-9471 -746 4646 0
-4647 9471 0
-4647 762 0
-9471 -762 4647 0
-4648 9471 0
-4648 777 0
-9471 -777 4648 0
-4649 9471 0
-4649 791 0
-9471 -791 4649 0
-4650 9471 0
-4650 804 0
-9471 -804 4650 0
-4651 9471 0
-4651 816 0
-9471 -816 4651 0
-4652 9471 0
-4652 827 0
-9471 -827 4652 0
-4653 9471 0
-4653 837 0
-9471 -837 4653 0
-4654 9471 0
-4654 846 0
-9471 -846 4654 0
-4655 9471 0
-4655 854 0
-9471 -854 4655 0
-4656 9471 0
-4656 861 0
-9471 -861 4656 0
-4657 9471 0
-4657 867 0
-9471 -867 4657 0
-4658 9471 0
-4658 872 0
-9471 -872 4658 0
-4659 9471 0
-4659 876 0
-9471 -876 4659 0
-4660 9471 0
-4660 879 0
-9471 -879 4660 0
-4661 9471 0
-4661 881 0
-9471 -881 4661 0
-4662 9471 0
-4662 882 0
-9471 -882 4662 0
-4663 9472 0
-4663 673 0
-9472 -673 4663 0
-4664 9472 0
-4664 674 0
-9472 -674 4664 0
-4665 9472 0
-4665 675 0
-9472 -675 4665 0
-4666 9472 0
-4666 676 0
-9472 -676 4666 0
-4667 9472 0
-4667 677 0
-9472 -677 4667 0
-4668 9472 0
-4668 678 0
-9472 -678 4668 0
-4669 9472 0
-4669 679 0
-9472 -679 4669 0
-4670 9472 0
-4670 680 0
-9472 -680 4670 0
-4671 9472 0
-4671 681 0
-9472 -681 4671 0
-4672 9472 0
-4672 682 0
-9472 -682 4672 0
-4673 9472 0
-4673 683 0
-9472 -683 4673 0
-4674 9472 0
-4674 684 0
-9472 -684 4674 0
-4675 9472 0
-4675 685 0
-9472 -685 4675 0
-4676 9472 0
-4676 686 0
-9472 -686 4676 0
-4677 9472 0
-4677 687 0
-9472 -687 4677 0
-4678 9472 0
-4678 688 0
-9472 -688 4678 0
-4679 9472 0
-4679 689 0
-9472 -689 4679 0
-4680 9472 0
-4680 690 0
-9472 -690 4680 0
-4681 9472 0
-4681 691 0
-9472 -691 4681 0
-4682 9472 0
-4682 692 0
-9472 -692 4682 0
-4683 9473 0
-4683 673 0
-9473 -673 4683 0
-4684 9473 0
-4684 693 0
-9473 -693 4684 0
-4685 9473 0
-4685 694 0
-9473 -694 4685 0
-4686 9473 0
-4686 695 0
-9473 -695 4686 0
-4687 9473 0
-4687 696 0
-9473 -696 4687 0
-4688 9473 0
-4688 697 0
-9473 -697 4688 0
-4689 9473 0
-4689 698 0
-9473 -698 4689 0
-4690 9473 0
-4690 699 0
-9473 -699 4690 0
-4691 9473 0
-4691 700 0
-9473 -700 4691 0
-4692 9473 0
-4692 701 0
-9473 -701 4692 0
-4693 9473 0
-4693 702 0
-9473 -702 4693 0
-4694 9473 0
-4694 703 0
-9473 -703 4694 0
-4695 9473 0
-4695 704 0
-9473 -704 4695 0
-4696 9473 0
-4696 705 0
-9473 -705 4696 0
-4697 9473 0
-4697 706 0
-9473 -706 4697 0
-4698 9473 0
-4698 707 0
-9473 -707 4698 0
-4699 9473 0
-4699 708 0
-9473 -708 4699 0
-4700 9473 0
-4700 709 0
-9473 -709 4700 0
-4701 9473 0
-4701 710 0
-9473 -710 4701 0
-4702 9473 0
-4702 711 0
-9473 -711 4702 0
-4703 9474 0
-4703 674 0
-9474 -674 4703 0
-4704 9474 0
-4704 693 0
-9474 -693 4704 0
-4705 9474 0
-4705 712 0
-9474 -712 4705 0
-4706 9474 0
-4706 713 0
-9474 -713 4706 0
-4707 9474 0
-4707 714 0
-9474 -714 4707 0
-4708 9474 0
-4708 715 0
-9474 -715 4708 0
-4709 9474 0
-4709 716 0
-9474 -716 4709 0
-4710 9474 0
-4710 717 0
-9474 -717 4710 0
-4711 9474 0
-4711 718 0
-9474 -718 4711 0
-4712 9474 0
-4712 719 0
-9474 -719 4712 0
-4713 9474 0
-4713 720 0
-9474 -720 4713 0
-4714 9474 0
-4714 721 0
-9474 -721 4714 0
-4715 9474 0
-4715 722 0
-9474 -722 4715 0
-4716 9474 0
-4716 723 0
-9474 -723 4716 0
-4717 9474 0
-4717 724 0
-9474 -724 4717 0
-4718 9474 0
-4718 725 0
-9474 -725 4718 0
-4719 9474 0
-4719 726 0
-9474 -726 4719 0
-4720 9474 0
-4720 727 0
-9474 -727 4720 0
-4721 9474 0
-4721 728 0
-9474 -728 4721 0
-4722 9474 0
-4722 729 0
-9474 -729 4722 0
-4723 9475 0
-4723 675 0
-9475 -675 4723 0
-4724 9475 0
-4724 694 0
-9475 -694 4724 0
-4725 9475 0
-4725 712 0
-9475 -712 4725 0
-4726 9475 0
-4726 730 0
-9475 -730 4726 0
-4727 9475 0
-4727 731 0
-9475 -731 4727 0
-4728 9475 0
-4728 732 0
-9475 -732 4728 0
-4729 9475 0
-4729 733 0
-9475 -733 4729 0
-4730 9475 0
-4730 734 0
-9475 -734 4730 0
-4731 9475 0
-4731 735 0
-9475 -735 4731 0
-4732 9475 0
-4732 736 0
-9475 -736 4732 0
-4733 9475 0
-4733 737 0
-9475 -737 4733 0
-4734 9475 0
-4734 738 0
-9475 -738 4734 0
-4735 9475 0
-4735 739 0
-9475 -739 4735 0
-4736 9475 0
-4736 740 0
-9475 -740 4736 0
-4737 9475 0
-4737 741 0
-9475 -741 4737 0
-4738 9475 0
-4738 742 0
-9475 -742 4738 0
-4739 9475 0
-4739 743 0
-9475 -743 4739 0
-4740 9475 0
-4740 744 0
-9475 -744 4740 0
-4741 9475 0
-4741 745 0
-9475 -745 4741 0
-4742 9475 0
-4742 746 0
-9475 -746 4742 0
-4743 9476 0
-4743 676 0
-9476 -676 4743 0
-4744 9476 0
-4744 695 0
-9476 -695 4744 0
-4745 9476 0
-4745 713 0
-9476 -713 4745 0
-4746 9476 0
-4746 730 0
-9476 -730 4746 0
-4747 9476 0
-4747 747 0
-9476 -747 4747 0
-4748 9476 0
-4748 748 0
-9476 -748 4748 0
-4749 9476 0
-4749 749 0
-9476 -749 4749 0
-4750 9476 0
-4750 750 0
-9476 -750 4750 0
-4751 9476 0
-4751 751 0
-9476 -751 4751 0
-4752 9476 0
-4752 752 0
-9476 -752 4752 0
-4753 9476 0
-4753 753 0
-9476 -753 4753 0
-4754 9476 0
-4754 754 0
-9476 -754 4754 0
-4755 9476 0
-4755 755 0
-9476 -755 4755 0
-4756 9476 0
-4756 756 0
-9476 -756 4756 0
-4757 9476 0
-4757 757 0
-9476 -757 4757 0
-4758 9476 0
-4758 758 0
-9476 -758 4758 0
-4759 9476 0
-4759 759 0
-9476 -759 4759 0
-4760 9476 0
-4760 760 0
-9476 -760 4760 0
-4761 9476 0
-4761 761 0
-9476 -761 4761 0
-4762 9476 0
-4762 762 0
-9476 -762 4762 0
-4763 9477 0
-4763 677 0
-9477 -677 4763 0
-4764 9477 0
-4764 696 0
-9477 -696 4764 0
-4765 9477 0
-4765 714 0
-9477 -714 4765 0
-4766 9477 0
-4766 731 0
-9477 -731 4766 0
-4767 9477 0
-4767 747 0
-9477 -747 4767 0
-4768 9477 0
-4768 763 0
-9477 -763 4768 0
-4769 9477 0
-4769 764 0
-9477 -764 4769 0
-4770 9477 0
-4770 765 0
-9477 -765 4770 0
-4771 9477 0
-4771 766 0
-9477 -766 4771 0
-4772 9477 0
-4772 767 0
-9477 -767 4772 0
-4773 9477 0
-4773 768 0
-9477 -768 4773 0
-4774 9477 0
-4774 769 0
-9477 -769 4774 0
-4775 9477 0
-4775 770 0
-9477 -770 4775 0
-4776 9477 0
-4776 771 0
-9477 -771 4776 0
-4777 9477 0
-4777 772 0
-9477 -772 4777 0
-4778 9477 0
-4778 773 0
-9477 -773 4778 0
-4779 9477 0
-4779 774 0
-9477 -774 4779 0
-4780 9477 0
-4780 775 0
-9477 -775 4780 0
-4781 9477 0
-4781 776 0
-9477 -776 4781 0
-4782 9477 0
-4782 777 0
-9477 -777 4782 0
-4783 9478 0
-4783 678 0
-9478 -678 4783 0
-4784 9478 0
-4784 697 0
-9478 -697 4784 0
-4785 9478 0
-4785 715 0
-9478 -715 4785 0
-4786 9478 0
-4786 732 0
-9478 -732 4786 0
-4787 9478 0
-4787 748 0
-9478 -748 4787 0
-4788 9478 0
-4788 763 0
-9478 -763 4788 0
-4789 9478 0
-4789 778 0
-9478 -778 4789 0
-4790 9478 0
-4790 779 0
-9478 -779 4790 0
-4791 9478 0
-4791 780 0
-9478 -780 4791 0
-4792 9478 0
-4792 781 0
-9478 -781 4792 0
-4793 9478 0
-4793 782 0
-9478 -782 4793 0
-4794 9478 0
-4794 783 0
-9478 -783 4794 0
-4795 9478 0
-4795 784 0
-9478 -784 4795 0
-4796 9478 0
-4796 785 0
-9478 -785 4796 0
-4797 9478 0
-4797 786 0
-9478 -786 4797 0
-4798 9478 0
-4798 787 0
-9478 -787 4798 0
-4799 9478 0
-4799 788 0
-9478 -788 4799 0
-4800 9478 0
-4800 789 0
-9478 -789 4800 0
-4801 9478 0
-4801 790 0
-9478 -790 4801 0
-4802 9478 0
-4802 791 0
-9478 -791 4802 0
-4803 9479 0
-4803 679 0
-9479 -679 4803 0
-4804 9479 0
-4804 698 0
-9479 -698 4804 0
-4805 9479 0
-4805 716 0
-9479 -716 4805 0
-4806 9479 0
-4806 733 0
-9479 -733 4806 0
-4807 9479 0
-4807 749 0
-9479 -749 4807 0
-4808 9479 0
-4808 764 0
-9479 -764 4808 0
-4809 9479 0
-4809 778 0
-9479 -778 4809 0
-4810 9479 0
-4810 792 0
-9479 -792 4810 0
-4811 9479 0
-4811 793 0
-9479 -793 4811 0
-4812 9479 0
-4812 794 0
-9479 -794 4812 0
-4813 9479 0
-4813 795 0
-9479 -795 4813 0
-4814 9479 0
-4814 796 0
-9479 -796 4814 0
-4815 9479 0
-4815 797 0
-9479 -797 4815 0
-4816 9479 0
-4816 798 0
-9479 -798 4816 0
-4817 9479 0
-4817 799 0
-9479 -799 4817 0
-4818 9479 0
-4818 800 0
-9479 -800 4818 0
-4819 9479 0
-4819 801 0
-9479 -801 4819 0
-4820 9479 0
-4820 802 0
-9479 -802 4820 0
-4821 9479 0
-4821 803 0
-9479 -803 4821 0
-4822 9479 0
-4822 804 0
-9479 -804 4822 0
-4823 9480 0
-4823 680 0
-9480 -680 4823 0
-4824 9480 0
-4824 699 0
-9480 -699 4824 0
-4825 9480 0
-4825 717 0
-9480 -717 4825 0
-4826 9480 0
-4826 734 0
-9480 -734 4826 0
-4827 9480 0
-4827 750 0
-9480 -750 4827 0
-4828 9480 0
-4828 765 0
-9480 -765 4828 0
-4829 9480 0
-4829 779 0
-9480 -779 4829 0
-4830 9480 0
-4830 792 0
-9480 -792 4830 0
-4831 9480 0
-4831 805 0
-9480 -805 4831 0
-4832 9480 0
-4832 806 0
-9480 -806 4832 0
-4833 9480 0
-4833 807 0
-9480 -807 4833 0
-4834 9480 0
-4834 808 0
-9480 -808 4834 0
-4835 9480 0
-4835 809 0
-9480 -809 4835 0
-4836 9480 0
-4836 810 0
-9480 -810 4836 0
-4837 9480 0
-4837 811 0
-9480 -811 4837 0
-4838 9480 0
-4838 812 0
-9480 -812 4838 0
-4839 9480 0
-4839 813 0
-9480 -813 4839 0
-4840 9480 0
-4840 814 0
-9480 -814 4840 0
-4841 9480 0
-4841 815 0
-9480 -815 4841 0
-4842 9480 0
-4842 816 0
-9480 -816 4842 0
-4843 9481 0
-4843 681 0
-9481 -681 4843 0
-4844 9481 0
-4844 700 0
-9481 -700 4844 0
-4845 9481 0
-4845 718 0
-9481 -718 4845 0
-4846 9481 0
-4846 735 0
-9481 -735 4846 0
-4847 9481 0
-4847 751 0
-9481 -751 4847 0
-4848 9481 0
-4848 766 0
-9481 -766 4848 0
-4849 9481 0
-4849 780 0
-9481 -780 4849 0
-4850 9481 0
-4850 793 0
-9481 -793 4850 0
-4851 9481 0
-4851 805 0
-9481 -805 4851 0
-4852 9481 0
-4852 817 0
-9481 -817 4852 0
-4853 9481 0
-4853 818 0
-9481 -818 4853 0
-4854 9481 0
-4854 819 0
-9481 -819 4854 0
-4855 9481 0
-4855 820 0
-9481 -820 4855 0
-4856 9481 0
-4856 821 0
-9481 -821 4856 0
-4857 9481 0
-4857 822 0
-9481 -822 4857 0
-4858 9481 0
-4858 823 0
-9481 -823 4858 0
-4859 9481 0
-4859 824 0
-9481 -824 4859 0
-4860 9481 0
-4860 825 0
-9481 -825 4860 0
-4861 9481 0
-4861 826 0
-9481 -826 4861 0
-4862 9481 0
-4862 827 0
-9481 -827 4862 0
-4863 9482 0
-4863 682 0
-9482 -682 4863 0
-4864 9482 0
-4864 701 0
-9482 -701 4864 0
-4865 9482 0
-4865 719 0
-9482 -719 4865 0
-4866 9482 0
-4866 736 0
-9482 -736 4866 0
-4867 9482 0
-4867 752 0
-9482 -752 4867 0
-4868 9482 0
-4868 767 0
-9482 -767 4868 0
-4869 9482 0
-4869 781 0
-9482 -781 4869 0
-4870 9482 0
-4870 794 0
-9482 -794 4870 0
-4871 9482 0
-4871 806 0
-9482 -806 4871 0
-4872 9482 0
-4872 817 0
-9482 -817 4872 0
-4873 9482 0
-4873 828 0
-9482 -828 4873 0
-4874 9482 0
-4874 829 0
-9482 -829 4874 0
-4875 9482 0
-4875 830 0
-9482 -830 4875 0
-4876 9482 0
-4876 831 0
-9482 -831 4876 0
-4877 9482 0
-4877 832 0
-9482 -832 4877 0
-4878 9482 0
-4878 833 0
-9482 -833 4878 0
-4879 9482 0
-4879 834 0
-9482 -834 4879 0
-4880 9482 0
-4880 835 0
-9482 -835 4880 0
-4881 9482 0
-4881 836 0
-9482 -836 4881 0
-4882 9482 0
-4882 837 0
-9482 -837 4882 0
-4883 9483 0
-4883 683 0
-9483 -683 4883 0
-4884 9483 0
-4884 702 0
-9483 -702 4884 0
-4885 9483 0
-4885 720 0
-9483 -720 4885 0
-4886 9483 0
-4886 737 0
-9483 -737 4886 0
-4887 9483 0
-4887 753 0
-9483 -753 4887 0
-4888 9483 0
-4888 768 0
-9483 -768 4888 0
-4889 9483 0
-4889 782 0
-9483 -782 4889 0
-4890 9483 0
-4890 795 0
-9483 -795 4890 0
-4891 9483 0
-4891 807 0
-9483 -807 4891 0
-4892 9483 0
-4892 818 0
-9483 -818 4892 0
-4893 9483 0
-4893 828 0
-9483 -828 4893 0
-4894 9483 0
-4894 838 0
-9483 -838 4894 0
-4895 9483 0
-4895 839 0
-9483 -839 4895 0
-4896 9483 0
-4896 840 0
-9483 -840 4896 0
-4897 9483 0
-4897 841 0
-9483 -841 4897 0
-4898 9483 0
-4898 842 0
-9483 -842 4898 0
-4899 9483 0
-4899 843 0
-9483 -843 4899 0
-4900 9483 0
-4900 844 0
-9483 -844 4900 0
-4901 9483 0
-4901 845 0
-9483 -845 4901 0
-4902 9483 0
-4902 846 0
-9483 -846 4902 0
-4903 9484 0
-4903 684 0
-9484 -684 4903 0
-4904 9484 0
-4904 703 0
-9484 -703 4904 0
-4905 9484 0
-4905 721 0
-9484 -721 4905 0
-4906 9484 0
-4906 738 0
-9484 -738 4906 0
-4907 9484 0
-4907 754 0
-9484 -754 4907 0
-4908 9484 0
-4908 769 0
-9484 -769 4908 0
-4909 9484 0
-4909 783 0
-9484 -783 4909 0
-4910 9484 0
-4910 796 0
-9484 -796 4910 0
-4911 9484 0
-4911 808 0
-9484 -808 4911 0
-4912 9484 0
-4912 819 0
-9484 -819 4912 0
-4913 9484 0
-4913 829 0
-9484 -829 4913 0
-4914 9484 0
-4914 838 0
-9484 -838 4914 0
-4915 9484 0
-4915 847 0
-9484 -847 4915 0
-4916 9484 0
-4916 848 0
-9484 -848 4916 0
-4917 9484 0
-4917 849 0
-9484 -849 4917 0
-4918 9484 0
-4918 850 0
-9484 -850 4918 0
-4919 9484 0
-4919 851 0
-9484 -851 4919 0
-4920 9484 0
-4920 852 0
-9484 -852 4920 0
-4921 9484 0
-4921 853 0
-9484 -853 4921 0
-4922 9484 0
-4922 854 0
-9484 -854 4922 0
-4923 9485 0
-4923 685 0
-9485 -685 4923 0
-4924 9485 0
-4924 704 0
-9485 -704 4924 0
-4925 9485 0
-4925 722 0
-9485 -722 4925 0
-4926 9485 0
-4926 739 0
-9485 -739 4926 0
-4927 9485 0
-4927 755 0
-9485 -755 4927 0
-4928 9485 0
-4928 770 0
-9485 -770 4928 0
-4929 9485 0
-4929 784 0
-9485 -784 4929 0
-4930 9485 0
-4930 797 0
-9485 -797 4930 0
-4931 9485 0
-4931 809 0
-9485 -809 4931 0
-4932 9485 0
-4932 820 0
-9485 -820 4932 0
-4933 9485 0
-4933 830 0
-9485 -830 4933 0
-4934 9485 0
-4934 839 0
-9485 -839 4934 0
-4935 9485 0
-4935 847 0
-9485 -847 4935 0
-4936 9485 0
-4936 855 0
-9485 -855 4936 0
-4937 9485 0
-4937 856 0
-9485 -856 4937 0
-4938 9485 0
-4938 857 0
-9485 -857 4938 0
-4939 9485 0
-4939 858 0
-9485 -858 4939 0
-4940 9485 0
-4940 859 0
-9485 -859 4940 0
-4941 9485 0
-4941 860 0
-9485 -860 4941 0
-4942 9485 0
-4942 861 0
-9485 -861 4942 0
-4943 9486 0
-4943 686 0
-9486 -686 4943 0
-4944 9486 0
-4944 705 0
-9486 -705 4944 0
-4945 9486 0
-4945 723 0
-9486 -723 4945 0
-4946 9486 0
-4946 740 0
-9486 -740 4946 0
-4947 9486 0
-4947 756 0
-9486 -756 4947 0
-4948 9486 0
-4948 771 0
-9486 -771 4948 0
-4949 9486 0
-4949 785 0
-9486 -785 4949 0
-4950 9486 0
-4950 798 0
-9486 -798 4950 0
-4951 9486 0
-4951 810 0
-9486 -810 4951 0
-4952 9486 0
-4952 821 0
-9486 -821 4952 0
-4953 9486 0
-4953 831 0
-9486 -831 4953 0
-4954 9486 0
-4954 840 0
-9486 -840 4954 0
-4955 9486 0
-4955 848 0
-9486 -848 4955 0
-4956 9486 0
-4956 855 0
-9486 -855 4956 0
-4957 9486 0
-4957 862 0
-9486 -862 4957 0
-4958 9486 0
-4958 863 0
-9486 -863 4958 0
-4959 9486 0
-4959 864 0
-9486 -864 4959 0
-4960 9486 0
-4960 865 0
-9486 -865 4960 0
-4961 9486 0
-4961 866 0
-9486 -866 4961 0
-4962 9486 0
-4962 867 0
-9486 -867 4962 0
-4963 9487 0
-4963 687 0
-9487 -687 4963 0
-4964 9487 0
-4964 706 0
-9487 -706 4964 0
-4965 9487 0
-4965 724 0
-9487 -724 4965 0
-4966 9487 0
-4966 741 0
-9487 -741 4966 0
-4967 9487 0
-4967 757 0
-9487 -757 4967 0
-4968 9487 0
-4968 772 0
-9487 -772 4968 0
-4969 9487 0
-4969 786 0
-9487 -786 4969 0
-4970 9487 0
-4970 799 0
-9487 -799 4970 0
-4971 9487 0
-4971 811 0
-9487 -811 4971 0
-4972 9487 0
-4972 822 0
-9487 -822 4972 0
-4973 9487 0
-4973 832 0
-9487 -832 4973 0
-4974 9487 0
-4974 841 0
-9487 -841 4974 0
-4975 9487 0
-4975 849 0
-9487 -849 4975 0
-4976 9487 0
-4976 856 0
-9487 -856 4976 0
-4977 9487 0
-4977 862 0
-9487 -862 4977 0
-4978 9487 0
-4978 868 0
-9487 -868 4978 0
-4979 9487 0
-4979 869 0
-9487 -869 4979 0
-4980 9487 0
-4980 870 0
-9487 -870 4980 0
-4981 9487 0
-4981 871 0
-9487 -871 4981 0
-4982 9487 0
-4982 872 0
-9487 -872 4982 0
-4983 9488 0
-4983 688 0
-9488 -688 4983 0
-4984 9488 0
-4984 707 0
-9488 -707 4984 0
-4985 9488 0
-4985 725 0
-9488 -725 4985 0
-4986 9488 0
-4986 742 0
-9488 -742 4986 0
-4987 9488 0
-4987 758 0
-9488 -758 4987 0
-4988 9488 0
-4988 773 0
-9488 -773 4988 0
-4989 9488 0
-4989 787 0
-9488 -787 4989 0
-4990 9488 0
-4990 800 0
-9488 -800 4990 0
-4991 9488 0
-4991 812 0
-9488 -812 4991 0
-4992 9488 0
-4992 823 0
-9488 -823 4992 0
-4993 9488 0
-4993 833 0
-9488 -833 4993 0
-4994 9488 0
-4994 842 0
-9488 -842 4994 0
-4995 9488 0
-4995 850 0
-9488 -850 4995 0
-4996 9488 0
-4996 857 0
-9488 -857 4996 0
-4997 9488 0
-4997 863 0
-9488 -863 4997 0
-4998 9488 0
-4998 868 0
-9488 -868 4998 0
-4999 9488 0
-4999 873 0
-9488 -873 4999 0
-5000 9488 0
-5000 874 0
-9488 -874 5000 0
-5001 9488 0
-5001 875 0
-9488 -875 5001 0
-5002 9488 0
-5002 876 0
-9488 -876 5002 0
-5003 9489 0
-5003 689 0
-9489 -689 5003 0
-5004 9489 0
-5004 708 0
-9489 -708 5004 0
-5005 9489 0
-5005 726 0
-9489 -726 5005 0
-5006 9489 0
-5006 743 0
-9489 -743 5006 0
-5007 9489 0
-5007 759 0
-9489 -759 5007 0
-5008 9489 0
-5008 774 0
-9489 -774 5008 0
-5009 9489 0
-5009 788 0
-9489 -788 5009 0
-5010 9489 0
-5010 801 0
-9489 -801 5010 0
-5011 9489 0
-5011 813 0
-9489 -813 5011 0
-5012 9489 0
-5012 824 0
-9489 -824 5012 0
-5013 9489 0
-5013 834 0
-9489 -834 5013 0
-5014 9489 0
-5014 843 0
-9489 -843 5014 0
-5015 9489 0
-5015 851 0
-9489 -851 5015 0
-5016 9489 0
-5016 858 0
-9489 -858 5016 0
-5017 9489 0
-5017 864 0
-9489 -864 5017 0
-5018 9489 0
-5018 869 0
-9489 -869 5018 0
-5019 9489 0
-5019 873 0
-9489 -873 5019 0
-5020 9489 0
-5020 877 0
-9489 -877 5020 0
-5021 9489 0
-5021 878 0
-9489 -878 5021 0
-5022 9489 0
-5022 879 0
-9489 -879 5022 0
-5023 9490 0
-5023 690 0
-9490 -690 5023 0
-5024 9490 0
-5024 709 0
-9490 -709 5024 0
-5025 9490 0
-5025 727 0
-9490 -727 5025 0
-5026 9490 0
-5026 744 0
-9490 -744 5026 0
-5027 9490 0
-5027 760 0
-9490 -760 5027 0
-5028 9490 0
-5028 775 0
-9490 -775 5028 0
-5029 9490 0
-5029 789 0
-9490 -789 5029 0
-5030 9490 0
-5030 802 0
-9490 -802 5030 0
-5031 9490 0
-5031 814 0
-9490 -814 5031 0
-5032 9490 0
-5032 825 0
-9490 -825 5032 0
-5033 9490 0
-5033 835 0
-9490 -835 5033 0
-5034 9490 0
-5034 844 0
-9490 -844 5034 0
-5035 9490 0
-5035 852 0
-9490 -852 5035 0
-5036 9490 0
-5036 859 0
-9490 -859 5036 0
-5037 9490 0
-5037 865 0
-9490 -865 5037 0
-5038 9490 0
-5038 870 0
-9490 -870 5038 0
-5039 9490 0
-5039 874 0
-9490 -874 5039 0
-5040 9490 0
-5040 877 0
-9490 -877 5040 0
-5041 9490 0
-5041 880 0
-9490 -880 5041 0
-5042 9490 0
-5042 881 0
-9490 -881 5042 0
-5043 9491 0
-5043 691 0
-9491 -691 5043 0
-5044 9491 0
-5044 710 0
-9491 -710 5044 0
-5045 9491 0
-5045 728 0
-9491 -728 5045 0
-5046 9491 0
-5046 745 0
-9491 -745 5046 0
-5047 9491 0
-5047 761 0
-9491 -761 5047 0
-5048 9491 0
-5048 776 0
-9491 -776 5048 0
-5049 9491 0
-5049 790 0
-9491 -790 5049 0
-5050 9491 0
-5050 803 0
-9491 -803 5050 0
-5051 9491 0
-5051 815 0
-9491 -815 5051 0
-5052 9491 0
-5052 826 0
-9491 -826 5052 0
-5053 9491 0
-5053 836 0
-9491 -836 5053 0
-5054 9491 0
-5054 845 0
-9491 -845 5054 0
-5055 9491 0
-5055 853 0
-9491 -853 5055 0
-5056 9491 0
-5056 860 0
-9491 -860 5056 0
-5057 9491 0
-5057 866 0
-9491 -866 5057 0
-5058 9491 0
-5058 871 0
-9491 -871 5058 0
-5059 9491 0
-5059 875 0
-9491 -875 5059 0
-5060 9491 0
-5060 878 0
-9491 -878 5060 0
-5061 9491 0
-5061 880 0
-9491 -880 5061 0
-5062 9491 0
-5062 882 0
-9491 -882 5062 0
-5063 9492 0
-5063 692 0
-9492 -692 5063 0
-5064 9492 0
-5064 711 0
-9492 -711 5064 0
-5065 9492 0
-5065 729 0
-9492 -729 5065 0
-5066 9492 0
-5066 746 0
-9492 -746 5066 0
-5067 9492 0
-5067 762 0
-9492 -762 5067 0
-5068 9492 0
-5068 777 0
-9492 -777 5068 0
-5069 9492 0
-5069 791 0
-9492 -791 5069 0
-5070 9492 0
-5070 804 0
-9492 -804 5070 0
-5071 9492 0
-5071 816 0
-9492 -816 5071 0
-5072 9492 0
-5072 827 0
-9492 -827 5072 0
-5073 9492 0
-5073 837 0
-9492 -837 5073 0
-5074 9492 0
-5074 846 0
-9492 -846 5074 0
-5075 9492 0
-5075 854 0
-9492 -854 5075 0
-5076 9492 0
-5076 861 0
-9492 -861 5076 0
-5077 9492 0
-5077 867 0
-9492 -867 5077 0
-5078 9492 0
-5078 872 0
-9492 -872 5078 0
-5079 9492 0
-5079 876 0
-9492 -876 5079 0
-5080 9492 0
-5080 879 0
-9492 -879 5080 0
-5081 9492 0
-5081 881 0
-9492 -881 5081 0
-5082 9492 0
-5082 882 0
-9492 -882 5082 0
-5083 9493 0
-5083 673 0
-9493 -673 5083 0
-5084 9493 0
-5084 674 0
-9493 -674 5084 0
-5085 9493 0
-5085 675 0
-9493 -675 5085 0
-5086 9493 0
-5086 676 0
-9493 -676 5086 0
-5087 9493 0
-5087 677 0
-9493 -677 5087 0
-5088 9493 0
-5088 678 0
-9493 -678 5088 0
-5089 9493 0
-5089 679 0
-9493 -679 5089 0
-5090 9493 0
-5090 680 0
-9493 -680 5090 0
-5091 9493 0
-5091 681 0
-9493 -681 5091 0
-5092 9493 0
-5092 682 0
-9493 -682 5092 0
-5093 9493 0
-5093 683 0
-9493 -683 5093 0
-5094 9493 0
-5094 684 0
-9493 -684 5094 0
-5095 9493 0
-5095 685 0
-9493 -685 5095 0
-5096 9493 0
-5096 686 0
-9493 -686 5096 0
-5097 9493 0
-5097 687 0
-9493 -687 5097 0
-5098 9493 0
-5098 688 0
-9493 -688 5098 0
-5099 9493 0
-5099 689 0
-9493 -689 5099 0
-5100 9493 0
-5100 690 0
-9493 -690 5100 0
-5101 9493 0
-5101 691 0
-9493 -691 5101 0
-5102 9493 0
-5102 692 0
-9493 -692 5102 0
-5103 9494 0
-5103 673 0
-9494 -673 5103 0
-5104 9494 0
-5104 693 0
-9494 -693 5104 0
-5105 9494 0
-5105 694 0
-9494 -694 5105 0
-5106 9494 0
-5106 695 0
-9494 -695 5106 0
-5107 9494 0
-5107 696 0
-9494 -696 5107 0
-5108 9494 0
-5108 697 0
-9494 -697 5108 0
-5109 9494 0
-5109 698 0
-9494 -698 5109 0
-5110 9494 0
-5110 699 0
-9494 -699 5110 0
-5111 9494 0
-5111 700 0
-9494 -700 5111 0
-5112 9494 0
-5112 701 0
-9494 -701 5112 0
-5113 9494 0
-5113 702 0
-9494 -702 5113 0
-5114 9494 0
-5114 703 0
-9494 -703 5114 0
-5115 9494 0
-5115 704 0
-9494 -704 5115 0
-5116 9494 0
-5116 705 0
-9494 -705 5116 0
-5117 9494 0
-5117 706 0
-9494 -706 5117 0
-5118 9494 0
-5118 707 0
-9494 -707 5118 0
-5119 9494 0
-5119 708 0
-9494 -708 5119 0
-5120 9494 0
-5120 709 0
-9494 -709 5120 0
-5121 9494 0
-5121 710 0
-9494 -710 5121 0
-5122 9494 0
-5122 711 0
-9494 -711 5122 0
-5123 9495 0
-5123 674 0
-9495 -674 5123 0
-5124 9495 0
-5124 693 0
-9495 -693 5124 0
-5125 9495 0
-5125 712 0
-9495 -712 5125 0
-5126 9495 0
-5126 713 0
-9495 -713 5126 0
-5127 9495 0
-5127 714 0
-9495 -714 5127 0
-5128 9495 0
-5128 715 0
-9495 -715 5128 0
-5129 9495 0
-5129 716 0
-9495 -716 5129 0
-5130 9495 0
-5130 717 0
-9495 -717 5130 0
-5131 9495 0
-5131 718 0
-9495 -718 5131 0
-5132 9495 0
-5132 719 0
-9495 -719 5132 0
-5133 9495 0
-5133 720 0
-9495 -720 5133 0
-5134 9495 0
-5134 721 0
-9495 -721 5134 0
-5135 9495 0
-5135 722 0
-9495 -722 5135 0
-5136 9495 0
-5136 723 0
-9495 -723 5136 0
-5137 9495 0
-5137 724 0
-9495 -724 5137 0
-5138 9495 0
-5138 725 0
-9495 -725 5138 0
-5139 9495 0
-5139 726 0
-9495 -726 5139 0
-5140 9495 0
-5140 727 0
-9495 -727 5140 0
-5141 9495 0
-5141 728 0
-9495 -728 5141 0
-5142 9495 0
-5142 729 0
-9495 -729 5142 0
-5143 9496 0
-5143 675 0
-9496 -675 5143 0
-5144 9496 0
-5144 694 0
-9496 -694 5144 0
-5145 9496 0
-5145 712 0
-9496 -712 5145 0
-5146 9496 0
-5146 730 0
-9496 -730 5146 0
-5147 9496 0
-5147 731 0
-9496 -731 5147 0
-5148 9496 0
-5148 732 0
-9496 -732 5148 0
-5149 9496 0
-5149 733 0
-9496 -733 5149 0
-5150 9496 0
-5150 734 0
-9496 -734 5150 0
-5151 9496 0
-5151 735 0
-9496 -735 5151 0
-5152 9496 0
-5152 736 0
-9496 -736 5152 0
-5153 9496 0
-5153 737 0
-9496 -737 5153 0
-5154 9496 0
-5154 738 0
-9496 -738 5154 0
-5155 9496 0
-5155 739 0
-9496 -739 5155 0
-5156 9496 0
-5156 740 0
-9496 -740 5156 0
-5157 9496 0
-5157 741 0
-9496 -741 5157 0
-5158 9496 0
-5158 742 0
-9496 -742 5158 0
-5159 9496 0
-5159 743 0
-9496 -743 5159 0
-5160 9496 0
-5160 744 0
-9496 -744 5160 0
-5161 9496 0
-5161 745 0
-9496 -745 5161 0
-5162 9496 0
-5162 746 0
-9496 -746 5162 0
-5163 9497 0
-5163 676 0
-9497 -676 5163 0
-5164 9497 0
-5164 695 0
-9497 -695 5164 0
-5165 9497 0
-5165 713 0
-9497 -713 5165 0
-5166 9497 0
-5166 730 0
-9497 -730 5166 0
-5167 9497 0
-5167 747 0
-9497 -747 5167 0
-5168 9497 0
-5168 748 0
-9497 -748 5168 0
-5169 9497 0
-5169 749 0
-9497 -749 5169 0
-5170 9497 0
-5170 750 0
-9497 -750 5170 0
-5171 9497 0
-5171 751 0
-9497 -751 5171 0
-5172 9497 0
-5172 752 0
-9497 -752 5172 0
-5173 9497 0
-5173 753 0
-9497 -753 5173 0
-5174 9497 0
-5174 754 0
-9497 -754 5174 0
-5175 9497 0
-5175 755 0
-9497 -755 5175 0
-5176 9497 0
-5176 756 0
-9497 -756 5176 0
-5177 9497 0
-5177 757 0
-9497 -757 5177 0
-5178 9497 0
-5178 758 0
-9497 -758 5178 0
-5179 9497 0
-5179 759 0
-9497 -759 5179 0
-5180 9497 0
-5180 760 0
-9497 -760 5180 0
-5181 9497 0
-5181 761 0
-9497 -761 5181 0
-5182 9497 0
-5182 762 0
-9497 -762 5182 0
-5183 9498 0
-5183 677 0
-9498 -677 5183 0
-5184 9498 0
-5184 696 0
-9498 -696 5184 0
-5185 9498 0
-5185 714 0
-9498 -714 5185 0
-5186 9498 0
-5186 731 0
-9498 -731 5186 0
-5187 9498 0
-5187 747 0
-9498 -747 5187 0
-5188 9498 0
-5188 763 0
-9498 -763 5188 0
-5189 9498 0
-5189 764 0
-9498 -764 5189 0
-5190 9498 0
-5190 765 0
-9498 -765 5190 0
-5191 9498 0
-5191 766 0
-9498 -766 5191 0
-5192 9498 0
-5192 767 0
-9498 -767 5192 0
-5193 9498 0
-5193 768 0
-9498 -768 5193 0
-5194 9498 0
-5194 769 0
-9498 -769 5194 0
-5195 9498 0
-5195 770 0
-9498 -770 5195 0
-5196 9498 0
-5196 771 0
-9498 -771 5196 0
-5197 9498 0
-5197 772 0
-9498 -772 5197 0
-5198 9498 0
-5198 773 0
-9498 -773 5198 0
-5199 9498 0
-5199 774 0
-9498 -774 5199 0
-5200 9498 0
-5200 775 0
-9498 -775 5200 0
-5201 9498 0
-5201 776 0
-9498 -776 5201 0
-5202 9498 0
-5202 777 0
-9498 -777 5202 0
-5203 9499 0
-5203 678 0
-9499 -678 5203 0
-5204 9499 0
-5204 697 0
-9499 -697 5204 0
-5205 9499 0
-5205 715 0
-9499 -715 5205 0
-5206 9499 0
-5206 732 0
-9499 -732 5206 0
-5207 9499 0
-5207 748 0
-9499 -748 5207 0
-5208 9499 0
-5208 763 0
-9499 -763 5208 0
-5209 9499 0
-5209 778 0
-9499 -778 5209 0
-5210 9499 0
-5210 779 0
-9499 -779 5210 0
-5211 9499 0
-5211 780 0
-9499 -780 5211 0
-5212 9499 0
-5212 781 0
-9499 -781 5212 0
-5213 9499 0
-5213 782 0
-9499 -782 5213 0
-5214 9499 0
-5214 783 0
-9499 -783 5214 0
-5215 9499 0
-5215 784 0
-9499 -784 5215 0
-5216 9499 0
-5216 785 0
-9499 -785 5216 0
-5217 9499 0
-5217 786 0
-9499 -786 5217 0
-5218 9499 0
-5218 787 0
-9499 -787 5218 0
-5219 9499 0
-5219 788 0
-9499 -788 5219 0
-5220 9499 0
-5220 789 0
-9499 -789 5220 0
-5221 9499 0
-5221 790 0
-9499 -790 5221 0
-5222 9499 0
-5222 791 0
-9499 -791 5222 0
-5223 9500 0
-5223 679 0
-9500 -679 5223 0
-5224 9500 0
-5224 698 0
-9500 -698 5224 0
-5225 9500 0
-5225 716 0
-9500 -716 5225 0
-5226 9500 0
-5226 733 0
-9500 -733 5226 0
-5227 9500 0
-5227 749 0
-9500 -749 5227 0
-5228 9500 0
-5228 764 0
-9500 -764 5228 0
-5229 9500 0
-5229 778 0
-9500 -778 5229 0
-5230 9500 0
-5230 792 0
-9500 -792 5230 0
-5231 9500 0
-5231 793 0
-9500 -793 5231 0
-5232 9500 0
-5232 794 0
-9500 -794 5232 0
-5233 9500 0
-5233 795 0
-9500 -795 5233 0
-5234 9500 0
-5234 796 0
-9500 -796 5234 0
-5235 9500 0
-5235 797 0
-9500 -797 5235 0
-5236 9500 0
-5236 798 0
-9500 -798 5236 0
-5237 9500 0
-5237 799 0
-9500 -799 5237 0
-5238 9500 0
-5238 800 0
-9500 -800 5238 0
-5239 9500 0
-5239 801 0
-9500 -801 5239 0
-5240 9500 0
-5240 802 0
-9500 -802 5240 0
-5241 9500 0
-5241 803 0
-9500 -803 5241 0
-5242 9500 0
-5242 804 0
-9500 -804 5242 0
-5243 9501 0
-5243 680 0
-9501 -680 5243 0
-5244 9501 0
-5244 699 0
-9501 -699 5244 0
-5245 9501 0
-5245 717 0
-9501 -717 5245 0
-5246 9501 0
-5246 734 0
-9501 -734 5246 0
-5247 9501 0
-5247 750 0
-9501 -750 5247 0
-5248 9501 0
-5248 765 0
-9501 -765 5248 0
-5249 9501 0
-5249 779 0
-9501 -779 5249 0
-5250 9501 0
-5250 792 0
-9501 -792 5250 0
-5251 9501 0
-5251 805 0
-9501 -805 5251 0
-5252 9501 0
-5252 806 0
-9501 -806 5252 0
-5253 9501 0
-5253 807 0
-9501 -807 5253 0
-5254 9501 0
-5254 808 0
-9501 -808 5254 0
-5255 9501 0
-5255 809 0
-9501 -809 5255 0
-5256 9501 0
-5256 810 0
-9501 -810 5256 0
-5257 9501 0
-5257 811 0
-9501 -811 5257 0
-5258 9501 0
-5258 812 0
-9501 -812 5258 0
-5259 9501 0
-5259 813 0
-9501 -813 5259 0
-5260 9501 0
-5260 814 0
-9501 -814 5260 0
-5261 9501 0
-5261 815 0
-9501 -815 5261 0
-5262 9501 0
-5262 816 0
-9501 -816 5262 0
-5263 9502 0
-5263 681 0
-9502 -681 5263 0
-5264 9502 0
-5264 700 0
-9502 -700 5264 0
-5265 9502 0
-5265 718 0
-9502 -718 5265 0
-5266 9502 0
-5266 735 0
-9502 -735 5266 0
-5267 9502 0
-5267 751 0
-9502 -751 5267 0
-5268 9502 0
-5268 766 0
-9502 -766 5268 0
-5269 9502 0
-5269 780 0
-9502 -780 5269 0
-5270 9502 0
-5270 793 0
-9502 -793 5270 0
-5271 9502 0
-5271 805 0
-9502 -805 5271 0
-5272 9502 0
-5272 817 0
-9502 -817 5272 0
-5273 9502 0
-5273 818 0
-9502 -818 5273 0
-5274 9502 0
-5274 819 0
-9502 -819 5274 0
-5275 9502 0
-5275 820 0
-9502 -820 5275 0
-5276 9502 0
-5276 821 0
-9502 -821 5276 0
-5277 9502 0
-5277 822 0
-9502 -822 5277 0
-5278 9502 0
-5278 823 0
-9502 -823 5278 0
-5279 9502 0
-5279 824 0
-9502 -824 5279 0
-5280 9502 0
-5280 825 0
-9502 -825 5280 0
-5281 9502 0
-5281 826 0
-9502 -826 5281 0
-5282 9502 0
-5282 827 0
-9502 -827 5282 0
-5283 9503 0
-5283 682 0
-9503 -682 5283 0
-5284 9503 0
-5284 701 0
-9503 -701 5284 0
-5285 9503 0
-5285 719 0
-9503 -719 5285 0
-5286 9503 0
-5286 736 0
-9503 -736 5286 0
-5287 9503 0
-5287 752 0
-9503 -752 5287 0
-5288 9503 0
-5288 767 0
-9503 -767 5288 0
-5289 9503 0
-5289 781 0
-9503 -781 5289 0
-5290 9503 0
-5290 794 0
-9503 -794 5290 0
-5291 9503 0
-5291 806 0
-9503 -806 5291 0
-5292 9503 0
-5292 817 0
-9503 -817 5292 0
-5293 9503 0
-5293 828 0
-9503 -828 5293 0
-5294 9503 0
-5294 829 0
-9503 -829 5294 0
-5295 9503 0
-5295 830 0
-9503 -830 5295 0
-5296 9503 0
-5296 831 0
-9503 -831 5296 0
-5297 9503 0
-5297 832 0
-9503 -832 5297 0
-5298 9503 0
-5298 833 0
-9503 -833 5298 0
-5299 9503 0
-5299 834 0
-9503 -834 5299 0
-5300 9503 0
-5300 835 0
-9503 -835 5300 0
-5301 9503 0
-5301 836 0
-9503 -836 5301 0
-5302 9503 0
-5302 837 0
-9503 -837 5302 0
-5303 9504 0
-5303 683 0
-9504 -683 5303 0
-5304 9504 0
-5304 702 0
-9504 -702 5304 0
-5305 9504 0
-5305 720 0
-9504 -720 5305 0
-5306 9504 0
-5306 737 0
-9504 -737 5306 0
-5307 9504 0
-5307 753 0
-9504 -753 5307 0
-5308 9504 0
-5308 768 0
-9504 -768 5308 0
-5309 9504 0
-5309 782 0
-9504 -782 5309 0
-5310 9504 0
-5310 795 0
-9504 -795 5310 0
-5311 9504 0
-5311 807 0
-9504 -807 5311 0
-5312 9504 0
-5312 818 0
-9504 -818 5312 0
-5313 9504 0
-5313 828 0
-9504 -828 5313 0
-5314 9504 0
-5314 838 0
-9504 -838 5314 0
-5315 9504 0
-5315 839 0
-9504 -839 5315 0
-5316 9504 0
-5316 840 0
-9504 -840 5316 0
-5317 9504 0
-5317 841 0
-9504 -841 5317 0
-5318 9504 0
-5318 842 0
-9504 -842 5318 0
-5319 9504 0
-5319 843 0
-9504 -843 5319 0
-5320 9504 0
-5320 844 0
-9504 -844 5320 0
-5321 9504 0
-5321 845 0
-9504 -845 5321 0
-5322 9504 0
-5322 846 0
-9504 -846 5322 0
-5323 9505 0
-5323 684 0
-9505 -684 5323 0
-5324 9505 0
-5324 703 0
-9505 -703 5324 0
-5325 9505 0
-5325 721 0
-9505 -721 5325 0
-5326 9505 0
-5326 738 0
-9505 -738 5326 0
-5327 9505 0
-5327 754 0
-9505 -754 5327 0
-5328 9505 0
-5328 769 0
-9505 -769 5328 0
-5329 9505 0
-5329 783 0
-9505 -783 5329 0
-5330 9505 0
-5330 796 0
-9505 -796 5330 0
-5331 9505 0
-5331 808 0
-9505 -808 5331 0
-5332 9505 0
-5332 819 0
-9505 -819 5332 0
-5333 9505 0
-5333 829 0
-9505 -829 5333 0
-5334 9505 0
-5334 838 0
-9505 -838 5334 0
-5335 9505 0
-5335 847 0
-9505 -847 5335 0
-5336 9505 0
-5336 848 0
-9505 -848 5336 0
-5337 9505 0
-5337 849 0
-9505 -849 5337 0
-5338 9505 0
-5338 850 0
-9505 -850 5338 0
-5339 9505 0
-5339 851 0
-9505 -851 5339 0
-5340 9505 0
-5340 852 0
-9505 -852 5340 0
-5341 9505 0
-5341 853 0
-9505 -853 5341 0
-5342 9505 0
-5342 854 0
-9505 -854 5342 0
-5343 9506 0
-5343 685 0
-9506 -685 5343 0
-5344 9506 0
-5344 704 0
-9506 -704 5344 0
-5345 9506 0
-5345 722 0
-9506 -722 5345 0
-5346 9506 0
-5346 739 0
-9506 -739 5346 0
-5347 9506 0
-5347 755 0
-9506 -755 5347 0
-5348 9506 0
-5348 770 0
-9506 -770 5348 0
-5349 9506 0
-5349 784 0
-9506 -784 5349 0
-5350 9506 0
-5350 797 0
-9506 -797 5350 0
-5351 9506 0
-5351 809 0
-9506 -809 5351 0
-5352 9506 0
-5352 820 0
-9506 -820 5352 0
-5353 9506 0
-5353 830 0
-9506 -830 5353 0
-5354 9506 0
-5354 839 0
-9506 -839 5354 0
-5355 9506 0
-5355 847 0
-9506 -847 5355 0
-5356 9506 0
-5356 855 0
-9506 -855 5356 0
-5357 9506 0
-5357 856 0
-9506 -856 5357 0
-5358 9506 0
-5358 857 0
-9506 -857 5358 0
-5359 9506 0
-5359 858 0
-9506 -858 5359 0
-5360 9506 0
-5360 859 0
-9506 -859 5360 0
-5361 9506 0
-5361 860 0
-9506 -860 5361 0
-5362 9506 0
-5362 861 0
-9506 -861 5362 0
-5363 9507 0
-5363 686 0
-9507 -686 5363 0
-5364 9507 0
-5364 705 0
-9507 -705 5364 0
-5365 9507 0
-5365 723 0
-9507 -723 5365 0
-5366 9507 0
-5366 740 0
-9507 -740 5366 0
-5367 9507 0
-5367 756 0
-9507 -756 5367 0
-5368 9507 0
-5368 771 0
-9507 -771 5368 0
-5369 9507 0
-5369 785 0
-9507 -785 5369 0
-5370 9507 0
-5370 798 0
-9507 -798 5370 0
-5371 9507 0
-5371 810 0
-9507 -810 5371 0
-5372 9507 0
-5372 821 0
-9507 -821 5372 0
-5373 9507 0
-5373 831 0
-9507 -831 5373 0
-5374 9507 0
-5374 840 0
-9507 -840 5374 0
-5375 9507 0
-5375 848 0
-9507 -848 5375 0
-5376 9507 0
-5376 855 0
-9507 -855 5376 0
-5377 9507 0
-5377 862 0
-9507 -862 5377 0
-5378 9507 0
-5378 863 0
-9507 -863 5378 0
-5379 9507 0
-5379 864 0
-9507 -864 5379 0
-5380 9507 0
-5380 865 0
-9507 -865 5380 0
-5381 9507 0
-5381 866 0
-9507 -866 5381 0
-5382 9507 0
-5382 867 0
-9507 -867 5382 0
-5383 9508 0
-5383 687 0
-9508 -687 5383 0
-5384 9508 0
-5384 706 0
-9508 -706 5384 0
-5385 9508 0
-5385 724 0
-9508 -724 5385 0
-5386 9508 0
-5386 741 0
-9508 -741 5386 0
-5387 9508 0
-5387 757 0
-9508 -757 5387 0
-5388 9508 0
-5388 772 0
-9508 -772 5388 0
-5389 9508 0
-5389 786 0
-9508 -786 5389 0
-5390 9508 0
-5390 799 0
-9508 -799 5390 0
-5391 9508 0
-5391 811 0
-9508 -811 5391 0
-5392 9508 0
-5392 822 0
-9508 -822 5392 0
-5393 9508 0
-5393 832 0
-9508 -832 5393 0
-5394 9508 0
-5394 841 0
-9508 -841 5394 0
-5395 9508 0
-5395 849 0
-9508 -849 5395 0
-5396 9508 0
-5396 856 0
-9508 -856 5396 0
-5397 9508 0
-5397 862 0
-9508 -862 5397 0
-5398 9508 0
-5398 868 0
-9508 -868 5398 0
-5399 9508 0
-5399 869 0
-9508 -869 5399 0
-5400 9508 0
-5400 870 0
-9508 -870 5400 0
-5401 9508 0
-5401 871 0
-9508 -871 5401 0
-5402 9508 0
-5402 872 0
-9508 -872 5402 0
-5403 9509 0
-5403 688 0
-9509 -688 5403 0
-5404 9509 0
-5404 707 0
-9509 -707 5404 0
-5405 9509 0
-5405 725 0
-9509 -725 5405 0
-5406 9509 0
-5406 742 0
-9509 -742 5406 0
-5407 9509 0
-5407 758 0
-9509 -758 5407 0
-5408 9509 0
-5408 773 0
-9509 -773 5408 0
-5409 9509 0
-5409 787 0
-9509 -787 5409 0
-5410 9509 0
-5410 800 0
-9509 -800 5410 0
-5411 9509 0
-5411 812 0
-9509 -812 5411 0
-5412 9509 0
-5412 823 0
-9509 -823 5412 0
-5413 9509 0
-5413 833 0
-9509 -833 5413 0
-5414 9509 0
-5414 842 0
-9509 -842 5414 0
-5415 9509 0
-5415 850 0
-9509 -850 5415 0
-5416 9509 0
-5416 857 0
-9509 -857 5416 0
-5417 9509 0
-5417 863 0
-9509 -863 5417 0
-5418 9509 0
-5418 868 0
-9509 -868 5418 0
-5419 9509 0
-5419 873 0
-9509 -873 5419 0
-5420 9509 0
-5420 874 0
-9509 -874 5420 0
-5421 9509 0
-5421 875 0
-9509 -875 5421 0
-5422 9509 0
-5422 876 0
-9509 -876 5422 0
-5423 9510 0
-5423 689 0
-9510 -689 5423 0
-5424 9510 0
-5424 708 0
-9510 -708 5424 0
-5425 9510 0
-5425 726 0
-9510 -726 5425 0
-5426 9510 0
-5426 743 0
-9510 -743 5426 0
-5427 9510 0
-5427 759 0
-9510 -759 5427 0
-5428 9510 0
-5428 774 0
-9510 -774 5428 0
-5429 9510 0
-5429 788 0
-9510 -788 5429 0
-5430 9510 0
-5430 801 0
-9510 -801 5430 0
-5431 9510 0
-5431 813 0
-9510 -813 5431 0
-5432 9510 0
-5432 824 0
-9510 -824 5432 0
-5433 9510 0
-5433 834 0
-9510 -834 5433 0
-5434 9510 0
-5434 843 0
-9510 -843 5434 0
-5435 9510 0
-5435 851 0
-9510 -851 5435 0
-5436 9510 0
-5436 858 0
-9510 -858 5436 0
-5437 9510 0
-5437 864 0
-9510 -864 5437 0
-5438 9510 0
-5438 869 0
-9510 -869 5438 0
-5439 9510 0
-5439 873 0
-9510 -873 5439 0
-5440 9510 0
-5440 877 0
-9510 -877 5440 0
-5441 9510 0
-5441 878 0
-9510 -878 5441 0
-5442 9510 0
-5442 879 0
-9510 -879 5442 0
-5443 9511 0
-5443 690 0
-9511 -690 5443 0
-5444 9511 0
-5444 709 0
-9511 -709 5444 0
-5445 9511 0
-5445 727 0
-9511 -727 5445 0
-5446 9511 0
-5446 744 0
-9511 -744 5446 0
-5447 9511 0
-5447 760 0
-9511 -760 5447 0
-5448 9511 0
-5448 775 0
-9511 -775 5448 0
-5449 9511 0
-5449 789 0
-9511 -789 5449 0
-5450 9511 0
-5450 802 0
-9511 -802 5450 0
-5451 9511 0
-5451 814 0
-9511 -814 5451 0
-5452 9511 0
-5452 825 0
-9511 -825 5452 0
-5453 9511 0
-5453 835 0
-9511 -835 5453 0
-5454 9511 0
-5454 844 0
-9511 -844 5454 0
-5455 9511 0
-5455 852 0
-9511 -852 5455 0
-5456 9511 0
-5456 859 0
-9511 -859 5456 0
-5457 9511 0
-5457 865 0
-9511 -865 5457 0
-5458 9511 0
-5458 870 0
-9511 -870 5458 0
-5459 9511 0
-5459 874 0
-9511 -874 5459 0
-5460 9511 0
-5460 877 0
-9511 -877 5460 0
-5461 9511 0
-5461 880 0
-9511 -880 5461 0
-5462 9511 0
-5462 881 0
-9511 -881 5462 0
-5463 9512 0
-5463 691 0
-9512 -691 5463 0
-5464 9512 0
-5464 710 0
-9512 -710 5464 0
-5465 9512 0
-5465 728 0
-9512 -728 5465 0
-5466 9512 0
-5466 745 0
-9512 -745 5466 0
-5467 9512 0
-5467 761 0
-9512 -761 5467 0
-5468 9512 0
-5468 776 0
-9512 -776 5468 0
-5469 9512 0
-5469 790 0
-9512 -790 5469 0
-5470 9512 0
-5470 803 0
-9512 -803 5470 0
-5471 9512 0
-5471 815 0
-9512 -815 5471 0
-5472 9512 0
-5472 826 0
-9512 -826 5472 0
-5473 9512 0
-5473 836 0
-9512 -836 5473 0
-5474 9512 0
-5474 845 0
-9512 -845 5474 0
-5475 9512 0
-5475 853 0
-9512 -853 5475 0
-5476 9512 0
-5476 860 0
-9512 -860 5476 0
-5477 9512 0
-5477 866 0
-9512 -866 5477 0
-5478 9512 0
-5478 871 0
-9512 -871 5478 0
-5479 9512 0
-5479 875 0
-9512 -875 5479 0
-5480 9512 0
-5480 878 0
-9512 -878 5480 0
-5481 9512 0
-5481 880 0
-9512 -880 5481 0
-5482 9512 0
-5482 882 0
-9512 -882 5482 0
-5483 9513 0
-5483 692 0
-9513 -692 5483 0
-5484 9513 0
-5484 711 0
-9513 -711 5484 0
-5485 9513 0
-5485 729 0
-9513 -729 5485 0
-5486 9513 0
-5486 746 0
-9513 -746 5486 0
-5487 9513 0
-5487 762 0
-9513 -762 5487 0
-5488 9513 0
-5488 777 0
-9513 -777 5488 0
-5489 9513 0
-5489 791 0
-9513 -791 5489 0
-5490 9513 0
-5490 804 0
-9513 -804 5490 0
-5491 9513 0
-5491 816 0
-9513 -816 5491 0
-5492 9513 0
-5492 827 0
-9513 -827 5492 0
-5493 9513 0
-5493 837 0
-9513 -837 5493 0
-5494 9513 0
-5494 846 0
-9513 -846 5494 0
-5495 9513 0
-5495 854 0
-9513 -854 5495 0
-5496 9513 0
-5496 861 0
-9513 -861 5496 0
-5497 9513 0
-5497 867 0
-9513 -867 5497 0
-5498 9513 0
-5498 872 0
-9513 -872 5498 0
-5499 9513 0
-5499 876 0
-9513 -876 5499 0
-5500 9513 0
-5500 879 0
-9513 -879 5500 0
-5501 9513 0
-5501 881 0
-9513 -881 5501 0
-5502 9513 0
-5502 882 0
-9513 -882 5502 0
-5503 9514 0
-5503 673 0
-9514 -673 5503 0
-5504 9514 0
-5504 674 0
-9514 -674 5504 0
-5505 9514 0
-5505 675 0
-9514 -675 5505 0
-5506 9514 0
-5506 676 0
-9514 -676 5506 0
-5507 9514 0
-5507 677 0
-9514 -677 5507 0
-5508 9514 0
-5508 678 0
-9514 -678 5508 0
-5509 9514 0
-5509 679 0
-9514 -679 5509 0
-5510 9514 0
-5510 680 0
-9514 -680 5510 0
-5511 9514 0
-5511 681 0
-9514 -681 5511 0
-5512 9514 0
-5512 682 0
-9514 -682 5512 0
-5513 9514 0
-5513 683 0
-9514 -683 5513 0
-5514 9514 0
-5514 684 0
-9514 -684 5514 0
-5515 9514 0
-5515 685 0
-9514 -685 5515 0
-5516 9514 0
-5516 686 0
-9514 -686 5516 0
-5517 9514 0
-5517 687 0
-9514 -687 5517 0
-5518 9514 0
-5518 688 0
-9514 -688 5518 0
-5519 9514 0
-5519 689 0
-9514 -689 5519 0
-5520 9514 0
-5520 690 0
-9514 -690 5520 0
-5521 9514 0
-5521 691 0
-9514 -691 5521 0
-5522 9514 0
-5522 692 0
-9514 -692 5522 0
-5523 9515 0
-5523 673 0
-9515 -673 5523 0
-5524 9515 0
-5524 693 0
-9515 -693 5524 0
-5525 9515 0
-5525 694 0
-9515 -694 5525 0
-5526 9515 0
-5526 695 0
-9515 -695 5526 0
-5527 9515 0
-5527 696 0
-9515 -696 5527 0
-5528 9515 0
-5528 697 0
-9515 -697 5528 0
-5529 9515 0
-5529 698 0
-9515 -698 5529 0
-5530 9515 0
-5530 699 0
-9515 -699 5530 0
-5531 9515 0
-5531 700 0
-9515 -700 5531 0
-5532 9515 0
-5532 701 0
-9515 -701 5532 0
-5533 9515 0
-5533 702 0
-9515 -702 5533 0
-5534 9515 0
-5534 703 0
-9515 -703 5534 0
-5535 9515 0
-5535 704 0
-9515 -704 5535 0
-5536 9515 0
-5536 705 0
-9515 -705 5536 0
-5537 9515 0
-5537 706 0
-9515 -706 5537 0
-5538 9515 0
-5538 707 0
-9515 -707 5538 0
-5539 9515 0
-5539 708 0
-9515 -708 5539 0
-5540 9515 0
-5540 709 0
-9515 -709 5540 0
-5541 9515 0
-5541 710 0
-9515 -710 5541 0
-5542 9515 0
-5542 711 0
-9515 -711 5542 0
-5543 9516 0
-5543 674 0
-9516 -674 5543 0
-5544 9516 0
-5544 693 0
-9516 -693 5544 0
-5545 9516 0
-5545 712 0
-9516 -712 5545 0
-5546 9516 0
-5546 713 0
-9516 -713 5546 0
-5547 9516 0
-5547 714 0
-9516 -714 5547 0
-5548 9516 0
-5548 715 0
-9516 -715 5548 0
-5549 9516 0
-5549 716 0
-9516 -716 5549 0
-5550 9516 0
-5550 717 0
-9516 -717 5550 0
-5551 9516 0
-5551 718 0
-9516 -718 5551 0
-5552 9516 0
-5552 719 0
-9516 -719 5552 0
-5553 9516 0
-5553 720 0
-9516 -720 5553 0
-5554 9516 0
-5554 721 0
-9516 -721 5554 0
-5555 9516 0
-5555 722 0
-9516 -722 5555 0
-5556 9516 0
-5556 723 0
-9516 -723 5556 0
-5557 9516 0
-5557 724 0
-9516 -724 5557 0
-5558 9516 0
-5558 725 0
-9516 -725 5558 0
-5559 9516 0
-5559 726 0
-9516 -726 5559 0
-5560 9516 0
-5560 727 0
-9516 -727 5560 0
-5561 9516 0
-5561 728 0
-9516 -728 5561 0
-5562 9516 0
-5562 729 0
-9516 -729 5562 0
-5563 9517 0
-5563 675 0
-9517 -675 5563 0
-5564 9517 0
-5564 694 0
-9517 -694 5564 0
-5565 9517 0
-5565 712 0
-9517 -712 5565 0
-5566 9517 0
-5566 730 0
-9517 -730 5566 0
-5567 9517 0
-5567 731 0
-9517 -731 5567 0
-5568 9517 0
-5568 732 0
-9517 -732 5568 0
-5569 9517 0
-5569 733 0
-9517 -733 5569 0
-5570 9517 0
-5570 734 0
-9517 -734 5570 0
-5571 9517 0
-5571 735 0
-9517 -735 5571 0
-5572 9517 0
-5572 736 0
-9517 -736 5572 0
-5573 9517 0
-5573 737 0
-9517 -737 5573 0
-5574 9517 0
-5574 738 0
-9517 -738 5574 0
-5575 9517 0
-5575 739 0
-9517 -739 5575 0
-5576 9517 0
-5576 740 0
-9517 -740 5576 0
-5577 9517 0
-5577 741 0
-9517 -741 5577 0
-5578 9517 0
-5578 742 0
-9517 -742 5578 0
-5579 9517 0
-5579 743 0
-9517 -743 5579 0
-5580 9517 0
-5580 744 0
-9517 -744 5580 0
-5581 9517 0
-5581 745 0
-9517 -745 5581 0
-5582 9517 0
-5582 746 0
-9517 -746 5582 0
-5583 9518 0
-5583 676 0
-9518 -676 5583 0
-5584 9518 0
-5584 695 0
-9518 -695 5584 0
-5585 9518 0
-5585 713 0
-9518 -713 5585 0
-5586 9518 0
-5586 730 0
-9518 -730 5586 0
-5587 9518 0
-5587 747 0
-9518 -747 5587 0
-5588 9518 0
-5588 748 0
-9518 -748 5588 0
-5589 9518 0
-5589 749 0
-9518 -749 5589 0
-5590 9518 0
-5590 750 0
-9518 -750 5590 0
-5591 9518 0
-5591 751 0
-9518 -751 5591 0
-5592 9518 0
-5592 752 0
-9518 -752 5592 0
-5593 9518 0
-5593 753 0
-9518 -753 5593 0
-5594 9518 0
-5594 754 0
-9518 -754 5594 0
-5595 9518 0
-5595 755 0
-9518 -755 5595 0
-5596 9518 0
-5596 756 0
-9518 -756 5596 0
-5597 9518 0
-5597 757 0
-9518 -757 5597 0
-5598 9518 0
-5598 758 0
-9518 -758 5598 0
-5599 9518 0
-5599 759 0
-9518 -759 5599 0
-5600 9518 0
-5600 760 0
-9518 -760 5600 0
-5601 9518 0
-5601 761 0
-9518 -761 5601 0
-5602 9518 0
-5602 762 0
-9518 -762 5602 0
-5603 9519 0
-5603 677 0
-9519 -677 5603 0
-5604 9519 0
-5604 696 0
-9519 -696 5604 0
-5605 9519 0
-5605 714 0
-9519 -714 5605 0
-5606 9519 0
-5606 731 0
-9519 -731 5606 0
-5607 9519 0
-5607 747 0
-9519 -747 5607 0
-5608 9519 0
-5608 763 0
-9519 -763 5608 0
-5609 9519 0
-5609 764 0
-9519 -764 5609 0
-5610 9519 0
-5610 765 0
-9519 -765 5610 0
-5611 9519 0
-5611 766 0
-9519 -766 5611 0
-5612 9519 0
-5612 767 0
-9519 -767 5612 0
-5613 9519 0
-5613 768 0
-9519 -768 5613 0
-5614 9519 0
-5614 769 0
-9519 -769 5614 0
-5615 9519 0
-5615 770 0
-9519 -770 5615 0
-5616 9519 0
-5616 771 0
-9519 -771 5616 0
-5617 9519 0
-5617 772 0
-9519 -772 5617 0
-5618 9519 0
-5618 773 0
-9519 -773 5618 0
-5619 9519 0
-5619 774 0
-9519 -774 5619 0
-5620 9519 0
-5620 775 0
-9519 -775 5620 0
-5621 9519 0
-5621 776 0
-9519 -776 5621 0
-5622 9519 0
-5622 777 0
-9519 -777 5622 0
-5623 9520 0
-5623 678 0
-9520 -678 5623 0
-5624 9520 0
-5624 697 0
-9520 -697 5624 0
-5625 9520 0
-5625 715 0
-9520 -715 5625 0
-5626 9520 0
-5626 732 0
-9520 -732 5626 0
-5627 9520 0
-5627 748 0
-9520 -748 5627 0
-5628 9520 0
-5628 763 0
-9520 -763 5628 0
-5629 9520 0
-5629 778 0
-9520 -778 5629 0
-5630 9520 0
-5630 779 0
-9520 -779 5630 0
-5631 9520 0
-5631 780 0
-9520 -780 5631 0
-5632 9520 0
-5632 781 0
-9520 -781 5632 0
-5633 9520 0
-5633 782 0
-9520 -782 5633 0
-5634 9520 0
-5634 783 0
-9520 -783 5634 0
-5635 9520 0
-5635 784 0
-9520 -784 5635 0
-5636 9520 0
-5636 785 0
-9520 -785 5636 0
-5637 9520 0
-5637 786 0
-9520 -786 5637 0
-5638 9520 0
-5638 787 0
-9520 -787 5638 0
-5639 9520 0
-5639 788 0
-9520 -788 5639 0
-5640 9520 0
-5640 789 0
-9520 -789 5640 0
-5641 9520 0
-5641 790 0
-9520 -790 5641 0
-5642 9520 0
-5642 791 0
-9520 -791 5642 0
-5643 9521 0
-5643 679 0
-9521 -679 5643 0
-5644 9521 0
-5644 698 0
-9521 -698 5644 0
-5645 9521 0
-5645 716 0
-9521 -716 5645 0
-5646 9521 0
-5646 733 0
-9521 -733 5646 0
-5647 9521 0
-5647 749 0
-9521 -749 5647 0
-5648 9521 0
-5648 764 0
-9521 -764 5648 0
-5649 9521 0
-5649 778 0
-9521 -778 5649 0
-5650 9521 0
-5650 792 0
-9521 -792 5650 0
-5651 9521 0
-5651 793 0
-9521 -793 5651 0
-5652 9521 0
-5652 794 0
-9521 -794 5652 0
-5653 9521 0
-5653 795 0
-9521 -795 5653 0
-5654 9521 0
-5654 796 0
-9521 -796 5654 0
-5655 9521 0
-5655 797 0
-9521 -797 5655 0
-5656 9521 0
-5656 798 0
-9521 -798 5656 0
-5657 9521 0
-5657 799 0
-9521 -799 5657 0
-5658 9521 0
-5658 800 0
-9521 -800 5658 0
-5659 9521 0
-5659 801 0
-9521 -801 5659 0
-5660 9521 0
-5660 802 0
-9521 -802 5660 0
-5661 9521 0
-5661 803 0
-9521 -803 5661 0
-5662 9521 0
-5662 804 0
-9521 -804 5662 0
-5663 9522 0
-5663 680 0
-9522 -680 5663 0
-5664 9522 0
-5664 699 0
-9522 -699 5664 0
-5665 9522 0
-5665 717 0
-9522 -717 5665 0
-5666 9522 0
-5666 734 0
-9522 -734 5666 0
-5667 9522 0
-5667 750 0
-9522 -750 5667 0
-5668 9522 0
-5668 765 0
-9522 -765 5668 0
-5669 9522 0
-5669 779 0
-9522 -779 5669 0
-5670 9522 0
-5670 792 0
-9522 -792 5670 0
-5671 9522 0
-5671 805 0
-9522 -805 5671 0
-5672 9522 0
-5672 806 0
-9522 -806 5672 0
-5673 9522 0
-5673 807 0
-9522 -807 5673 0
-5674 9522 0
-5674 808 0
-9522 -808 5674 0
-5675 9522 0
-5675 809 0
-9522 -809 5675 0
-5676 9522 0
-5676 810 0
-9522 -810 5676 0
-5677 9522 0
-5677 811 0
-9522 -811 5677 0
-5678 9522 0
-5678 812 0
-9522 -812 5678 0
-5679 9522 0
-5679 813 0
-9522 -813 5679 0
-5680 9522 0
-5680 814 0
-9522 -814 5680 0
-5681 9522 0
-5681 815 0
-9522 -815 5681 0
-5682 9522 0
-5682 816 0
-9522 -816 5682 0
-5683 9523 0
-5683 681 0
-9523 -681 5683 0
-5684 9523 0
-5684 700 0
-9523 -700 5684 0
-5685 9523 0
-5685 718 0
-9523 -718 5685 0
-5686 9523 0
-5686 735 0
-9523 -735 5686 0
-5687 9523 0
-5687 751 0
-9523 -751 5687 0
-5688 9523 0
-5688 766 0
-9523 -766 5688 0
-5689 9523 0
-5689 780 0
-9523 -780 5689 0
-5690 9523 0
-5690 793 0
-9523 -793 5690 0
-5691 9523 0
-5691 805 0
-9523 -805 5691 0
-5692 9523 0
-5692 817 0
-9523 -817 5692 0
-5693 9523 0
-5693 818 0
-9523 -818 5693 0
-5694 9523 0
-5694 819 0
-9523 -819 5694 0
-5695 9523 0
-5695 820 0
-9523 -820 5695 0
-5696 9523 0
-5696 821 0
-9523 -821 5696 0
-5697 9523 0
-5697 822 0
-9523 -822 5697 0
-5698 9523 0
-5698 823 0
-9523 -823 5698 0
-5699 9523 0
-5699 824 0
-9523 -824 5699 0
-5700 9523 0
-5700 825 0
-9523 -825 5700 0
-5701 9523 0
-5701 826 0
-9523 -826 5701 0
-5702 9523 0
-5702 827 0
-9523 -827 5702 0
-5703 9524 0
-5703 682 0
-9524 -682 5703 0
-5704 9524 0
-5704 701 0
-9524 -701 5704 0
-5705 9524 0
-5705 719 0
-9524 -719 5705 0
-5706 9524 0
-5706 736 0
-9524 -736 5706 0
-5707 9524 0
-5707 752 0
-9524 -752 5707 0
-5708 9524 0
-5708 767 0
-9524 -767 5708 0
-5709 9524 0
-5709 781 0
-9524 -781 5709 0
-5710 9524 0
-5710 794 0
-9524 -794 5710 0
-5711 9524 0
-5711 806 0
-9524 -806 5711 0
-5712 9524 0
-5712 817 0
-9524 -817 5712 0
-5713 9524 0
-5713 828 0
-9524 -828 5713 0
-5714 9524 0
-5714 829 0
-9524 -829 5714 0
-5715 9524 0
-5715 830 0
-9524 -830 5715 0
-5716 9524 0
-5716 831 0
-9524 -831 5716 0
-5717 9524 0
-5717 832 0
-9524 -832 5717 0
-5718 9524 0
-5718 833 0
-9524 -833 5718 0
-5719 9524 0
-5719 834 0
-9524 -834 5719 0
-5720 9524 0
-5720 835 0
-9524 -835 5720 0
-5721 9524 0
-5721 836 0
-9524 -836 5721 0
-5722 9524 0
-5722 837 0
-9524 -837 5722 0
-5723 9525 0
-5723 683 0
-9525 -683 5723 0
-5724 9525 0
-5724 702 0
-9525 -702 5724 0
-5725 9525 0
-5725 720 0
-9525 -720 5725 0
-5726 9525 0
-5726 737 0
-9525 -737 5726 0
-5727 9525 0
-5727 753 0
-9525 -753 5727 0
-5728 9525 0
-5728 768 0
-9525 -768 5728 0
-5729 9525 0
-5729 782 0
-9525 -782 5729 0
-5730 9525 0
-5730 795 0
-9525 -795 5730 0
-5731 9525 0
-5731 807 0
-9525 -807 5731 0
-5732 9525 0
-5732 818 0
-9525 -818 5732 0
-5733 9525 0
-5733 828 0
-9525 -828 5733 0
-5734 9525 0
-5734 838 0
-9525 -838 5734 0
-5735 9525 0
-5735 839 0
-9525 -839 5735 0
-5736 9525 0
-5736 840 0
-9525 -840 5736 0
-5737 9525 0
-5737 841 0
-9525 -841 5737 0
-5738 9525 0
-5738 842 0
-9525 -842 5738 0
-5739 9525 0
-5739 843 0
-9525 -843 5739 0
-5740 9525 0
-5740 844 0
-9525 -844 5740 0
-5741 9525 0
-5741 845 0
-9525 -845 5741 0
-5742 9525 0
-5742 846 0
-9525 -846 5742 0
-5743 9526 0
-5743 684 0
-9526 -684 5743 0
-5744 9526 0
-5744 703 0
-9526 -703 5744 0
-5745 9526 0
-5745 721 0
-9526 -721 5745 0
-5746 9526 0
-5746 738 0
-9526 -738 5746 0
-5747 9526 0
-5747 754 0
-9526 -754 5747 0
-5748 9526 0
-5748 769 0
-9526 -769 5748 0
-5749 9526 0
-5749 783 0
-9526 -783 5749 0
-5750 9526 0
-5750 796 0
-9526 -796 5750 0
-5751 9526 0
-5751 808 0
-9526 -808 5751 0
-5752 9526 0
-5752 819 0
-9526 -819 5752 0
-5753 9526 0
-5753 829 0
-9526 -829 5753 0
-5754 9526 0
-5754 838 0
-9526 -838 5754 0
-5755 9526 0
-5755 847 0
-9526 -847 5755 0
-5756 9526 0
-5756 848 0
-9526 -848 5756 0
-5757 9526 0
-5757 849 0
-9526 -849 5757 0
-5758 9526 0
-5758 850 0
-9526 -850 5758 0
-5759 9526 0
-5759 851 0
-9526 -851 5759 0
-5760 9526 0
-5760 852 0
-9526 -852 5760 0
-5761 9526 0
-5761 853 0
-9526 -853 5761 0
-5762 9526 0
-5762 854 0
-9526 -854 5762 0
-5763 9527 0
-5763 685 0
-9527 -685 5763 0
-5764 9527 0
-5764 704 0
-9527 -704 5764 0
-5765 9527 0
-5765 722 0
-9527 -722 5765 0
-5766 9527 0
-5766 739 0
-9527 -739 5766 0
-5767 9527 0
-5767 755 0
-9527 -755 5767 0
-5768 9527 0
-5768 770 0
-9527 -770 5768 0
-5769 9527 0
-5769 784 0
-9527 -784 5769 0
-5770 9527 0
-5770 797 0
-9527 -797 5770 0
-5771 9527 0
-5771 809 0
-9527 -809 5771 0
-5772 9527 0
-5772 820 0
-9527 -820 5772 0
-5773 9527 0
-5773 830 0
-9527 -830 5773 0
-5774 9527 0
-5774 839 0
-9527 -839 5774 0
-5775 9527 0
-5775 847 0
-9527 -847 5775 0
-5776 9527 0
-5776 855 0
-9527 -855 5776 0
-5777 9527 0
-5777 856 0
-9527 -856 5777 0
-5778 9527 0
-5778 857 0
-9527 -857 5778 0
-5779 9527 0
-5779 858 0
-9527 -858 5779 0
-5780 9527 0
-5780 859 0
-9527 -859 5780 0
-5781 9527 0
-5781 860 0
-9527 -860 5781 0
-5782 9527 0
-5782 861 0
-9527 -861 5782 0
-5783 9528 0
-5783 686 0
-9528 -686 5783 0
-5784 9528 0
-5784 705 0
-9528 -705 5784 0
-5785 9528 0
-5785 723 0
-9528 -723 5785 0
-5786 9528 0
-5786 740 0
-9528 -740 5786 0
-5787 9528 0
-5787 756 0
-9528 -756 5787 0
-5788 9528 0
-5788 771 0
-9528 -771 5788 0
-5789 9528 0
-5789 785 0
-9528 -785 5789 0
-5790 9528 0
-5790 798 0
-9528 -798 5790 0
-5791 9528 0
-5791 810 0
-9528 -810 5791 0
-5792 9528 0
-5792 821 0
-9528 -821 5792 0
-5793 9528 0
-5793 831 0
-9528 -831 5793 0
-5794 9528 0
-5794 840 0
-9528 -840 5794 0
-5795 9528 0
-5795 848 0
-9528 -848 5795 0
-5796 9528 0
-5796 855 0
-9528 -855 5796 0
-5797 9528 0
-5797 862 0
-9528 -862 5797 0
-5798 9528 0
-5798 863 0
-9528 -863 5798 0
-5799 9528 0
-5799 864 0
-9528 -864 5799 0
-5800 9528 0
-5800 865 0
-9528 -865 5800 0
-5801 9528 0
-5801 866 0
-9528 -866 5801 0
-5802 9528 0
-5802 867 0
-9528 -867 5802 0
-5803 9529 0
-5803 687 0
-9529 -687 5803 0
-5804 9529 0
-5804 706 0
-9529 -706 5804 0
-5805 9529 0
-5805 724 0
-9529 -724 5805 0
-5806 9529 0
-5806 741 0
-9529 -741 5806 0
-5807 9529 0
-5807 757 0
-9529 -757 5807 0
-5808 9529 0
-5808 772 0
-9529 -772 5808 0
-5809 9529 0
-5809 786 0
-9529 -786 5809 0
-5810 9529 0
-5810 799 0
-9529 -799 5810 0
-5811 9529 0
-5811 811 0
-9529 -811 5811 0
-5812 9529 0
-5812 822 0
-9529 -822 5812 0
-5813 9529 0
-5813 832 0
-9529 -832 5813 0
-5814 9529 0
-5814 841 0
-9529 -841 5814 0
-5815 9529 0
-5815 849 0
-9529 -849 5815 0
-5816 9529 0
-5816 856 0
-9529 -856 5816 0
-5817 9529 0
-5817 862 0
-9529 -862 5817 0
-5818 9529 0
-5818 868 0
-9529 -868 5818 0
-5819 9529 0
-5819 869 0
-9529 -869 5819 0
-5820 9529 0
-5820 870 0
-9529 -870 5820 0
-5821 9529 0
-5821 871 0
-9529 -871 5821 0
-5822 9529 0
-5822 872 0
-9529 -872 5822 0
-5823 9530 0
-5823 688 0
-9530 -688 5823 0
-5824 9530 0
-5824 707 0
-9530 -707 5824 0
-5825 9530 0
-5825 725 0
-9530 -725 5825 0
-5826 9530 0
-5826 742 0
-9530 -742 5826 0
-5827 9530 0
-5827 758 0
-9530 -758 5827 0
-5828 9530 0
-5828 773 0
-9530 -773 5828 0
-5829 9530 0
-5829 787 0
-9530 -787 5829 0
-5830 9530 0
-5830 800 0
-9530 -800 5830 0
-5831 9530 0
-5831 812 0
-9530 -812 5831 0
-5832 9530 0
-5832 823 0
-9530 -823 5832 0
-5833 9530 0
-5833 833 0
-9530 -833 5833 0
-5834 9530 0
-5834 842 0
-9530 -842 5834 0
-5835 9530 0
-5835 850 0
-9530 -850 5835 0
-5836 9530 0
-5836 857 0
-9530 -857 5836 0
-5837 9530 0
-5837 863 0
-9530 -863 5837 0
-5838 9530 0
-5838 868 0
-9530 -868 5838 0
-5839 9530 0
-5839 873 0
-9530 -873 5839 0
-5840 9530 0
-5840 874 0
-9530 -874 5840 0
-5841 9530 0
-5841 875 0
-9530 -875 5841 0
-5842 9530 0
-5842 876 0
-9530 -876 5842 0
-5843 9531 0
-5843 689 0
-9531 -689 5843 0
-5844 9531 0
-5844 708 0
-9531 -708 5844 0
-5845 9531 0
-5845 726 0
-9531 -726 5845 0
-5846 9531 0
-5846 743 0
-9531 -743 5846 0
-5847 9531 0
-5847 759 0
-9531 -759 5847 0
-5848 9531 0
-5848 774 0
-9531 -774 5848 0
-5849 9531 0
-5849 788 0
-9531 -788 5849 0
-5850 9531 0
-5850 801 0
-9531 -801 5850 0
-5851 9531 0
-5851 813 0
-9531 -813 5851 0
-5852 9531 0
-5852 824 0
-9531 -824 5852 0
-5853 9531 0
-5853 834 0
-9531 -834 5853 0
-5854 9531 0
-5854 843 0
-9531 -843 5854 0
-5855 9531 0
-5855 851 0
-9531 -851 5855 0
-5856 9531 0
-5856 858 0
-9531 -858 5856 0
-5857 9531 0
-5857 864 0
-9531 -864 5857 0
-5858 9531 0
-5858 869 0
-9531 -869 5858 0
-5859 9531 0
-5859 873 0
-9531 -873 5859 0
-5860 9531 0
-5860 877 0
-9531 -877 5860 0
-5861 9531 0
-5861 878 0
-9531 -878 5861 0
-5862 9531 0
-5862 879 0
-9531 -879 5862 0
-5863 9532 0
-5863 690 0
-9532 -690 5863 0
-5864 9532 0
-5864 709 0
-9532 -709 5864 0
-5865 9532 0
-5865 727 0
-9532 -727 5865 0
-5866 9532 0
-5866 744 0
-9532 -744 5866 0
-5867 9532 0
-5867 760 0
-9532 -760 5867 0
-5868 9532 0
-5868 775 0
-9532 -775 5868 0
-5869 9532 0
-5869 789 0
-9532 -789 5869 0
-5870 9532 0
-5870 802 0
-9532 -802 5870 0
-5871 9532 0
-5871 814 0
-9532 -814 5871 0
-5872 9532 0
-5872 825 0
-9532 -825 5872 0
-5873 9532 0
-5873 835 0
-9532 -835 5873 0
-5874 9532 0
-5874 844 0
-9532 -844 5874 0
-5875 9532 0
-5875 852 0
-9532 -852 5875 0
-5876 9532 0
-5876 859 0
-9532 -859 5876 0
-5877 9532 0
-5877 865 0
-9532 -865 5877 0
-5878 9532 0
-5878 870 0
-9532 -870 5878 0
-5879 9532 0
-5879 874 0
-9532 -874 5879 0
-5880 9532 0
-5880 877 0
-9532 -877 5880 0
-5881 9532 0
-5881 880 0
-9532 -880 5881 0
-5882 9532 0
-5882 881 0
-9532 -881 5882 0
-5883 9533 0
-5883 691 0
-9533 -691 5883 0
-5884 9533 0
-5884 710 0
-9533 -710 5884 0
-5885 9533 0
-5885 728 0
-9533 -728 5885 0
-5886 9533 0
-5886 745 0
-9533 -745 5886 0
-5887 9533 0
-5887 761 0
-9533 -761 5887 0
-5888 9533 0
-5888 776 0
-9533 -776 5888 0
-5889 9533 0
-5889 790 0
-9533 -790 5889 0
-5890 9533 0
-5890 803 0
-9533 -803 5890 0
-5891 9533 0
-5891 815 0
-9533 -815 5891 0
-5892 9533 0
-5892 826 0
-9533 -826 5892 0
-5893 9533 0
-5893 836 0
-9533 -836 5893 0
-5894 9533 0
-5894 845 0
-9533 -845 5894 0
-5895 9533 0
-5895 853 0
-9533 -853 5895 0
-5896 9533 0
-5896 860 0
-9533 -860 5896 0
-5897 9533 0
-5897 866 0
-9533 -866 5897 0
-5898 9533 0
-5898 871 0
-9533 -871 5898 0
-5899 9533 0
-5899 875 0
-9533 -875 5899 0
-5900 9533 0
-5900 878 0
-9533 -878 5900 0
-5901 9533 0
-5901 880 0
-9533 -880 5901 0
-5902 9533 0
-5902 882 0
-9533 -882 5902 0
-5903 9534 0
-5903 692 0
-9534 -692 5903 0
-5904 9534 0
-5904 711 0
-9534 -711 5904 0
-5905 9534 0
-5905 729 0
-9534 -729 5905 0
-5906 9534 0
-5906 746 0
-9534 -746 5906 0
-5907 9534 0
-5907 762 0
-9534 -762 5907 0
-5908 9534 0
-5908 777 0
-9534 -777 5908 0
-5909 9534 0
-5909 791 0
-9534 -791 5909 0
-5910 9534 0
-5910 804 0
-9534 -804 5910 0
-5911 9534 0
-5911 816 0
-9534 -816 5911 0
-5912 9534 0
-5912 827 0
-9534 -827 5912 0
-5913 9534 0
-5913 837 0
-9534 -837 5913 0
-5914 9534 0
-5914 846 0
-9534 -846 5914 0
-5915 9534 0
-5915 854 0
-9534 -854 5915 0
-5916 9534 0
-5916 861 0
-9534 -861 5916 0
-5917 9534 0
-5917 867 0
-9534 -867 5917 0
-5918 9534 0
-5918 872 0
-9534 -872 5918 0
-5919 9534 0
-5919 876 0
-9534 -876 5919 0
-5920 9534 0
-5920 879 0
-9534 -879 5920 0
-5921 9534 0
-5921 881 0
-9534 -881 5921 0
-5922 9534 0
-5922 882 0
-9534 -882 5922 0
-5923 9535 0
-5923 673 0
-9535 -673 5923 0
-5924 9535 0
-5924 674 0
-9535 -674 5924 0
-5925 9535 0
-5925 675 0
-9535 -675 5925 0
-5926 9535 0
-5926 676 0
-9535 -676 5926 0
-5927 9535 0
-5927 677 0
-9535 -677 5927 0
-5928 9535 0
-5928 678 0
-9535 -678 5928 0
-5929 9535 0
-5929 679 0
-9535 -679 5929 0
-5930 9535 0
-5930 680 0
-9535 -680 5930 0
-5931 9535 0
-5931 681 0
-9535 -681 5931 0
-5932 9535 0
-5932 682 0
-9535 -682 5932 0
-5933 9535 0
-5933 683 0
-9535 -683 5933 0
-5934 9535 0
-5934 684 0
-9535 -684 5934 0
-5935 9535 0
-5935 685 0
-9535 -685 5935 0
-5936 9535 0
-5936 686 0
-9535 -686 5936 0
-5937 9535 0
-5937 687 0
-9535 -687 5937 0
-5938 9535 0
-5938 688 0
-9535 -688 5938 0
-5939 9535 0
-5939 689 0
-9535 -689 5939 0
-5940 9535 0
-5940 690 0
-9535 -690 5940 0
-5941 9535 0
-5941 691 0
-9535 -691 5941 0
-5942 9535 0
-5942 692 0
-9535 -692 5942 0
-5943 9536 0
-5943 673 0
-9536 -673 5943 0
-5944 9536 0
-5944 693 0
-9536 -693 5944 0
-5945 9536 0
-5945 694 0
-9536 -694 5945 0
-5946 9536 0
-5946 695 0
-9536 -695 5946 0
-5947 9536 0
-5947 696 0
-9536 -696 5947 0
-5948 9536 0
-5948 697 0
-9536 -697 5948 0
-5949 9536 0
-5949 698 0
-9536 -698 5949 0
-5950 9536 0
-5950 699 0
-9536 -699 5950 0
-5951 9536 0
-5951 700 0
-9536 -700 5951 0
-5952 9536 0
-5952 701 0
-9536 -701 5952 0
-5953 9536 0
-5953 702 0
-9536 -702 5953 0
-5954 9536 0
-5954 703 0
-9536 -703 5954 0
-5955 9536 0
-5955 704 0
-9536 -704 5955 0
-5956 9536 0
-5956 705 0
-9536 -705 5956 0
-5957 9536 0
-5957 706 0
-9536 -706 5957 0
-5958 9536 0
-5958 707 0
-9536 -707 5958 0
-5959 9536 0
-5959 708 0
-9536 -708 5959 0
-5960 9536 0
-5960 709 0
-9536 -709 5960 0
-5961 9536 0
-5961 710 0
-9536 -710 5961 0
-5962 9536 0
-5962 711 0
-9536 -711 5962 0
-5963 9537 0
-5963 674 0
-9537 -674 5963 0
-5964 9537 0
-5964 693 0
-9537 -693 5964 0
-5965 9537 0
-5965 712 0
-9537 -712 5965 0
-5966 9537 0
-5966 713 0
-9537 -713 5966 0
-5967 9537 0
-5967 714 0
-9537 -714 5967 0
-5968 9537 0
-5968 715 0
-9537 -715 5968 0
-5969 9537 0
-5969 716 0
-9537 -716 5969 0
-5970 9537 0
-5970 717 0
-9537 -717 5970 0
-5971 9537 0
-5971 718 0
-9537 -718 5971 0
-5972 9537 0
-5972 719 0
-9537 -719 5972 0
-5973 9537 0
-5973 720 0
-9537 -720 5973 0
-5974 9537 0
-5974 721 0
-9537 -721 5974 0
-5975 9537 0
-5975 722 0
-9537 -722 5975 0
-5976 9537 0
-5976 723 0
-9537 -723 5976 0
-5977 9537 0
-5977 724 0
-9537 -724 5977 0
-5978 9537 0
-5978 725 0
-9537 -725 5978 0
-5979 9537 0
-5979 726 0
-9537 -726 5979 0
-5980 9537 0
-5980 727 0
-9537 -727 5980 0
-5981 9537 0
-5981 728 0
-9537 -728 5981 0
-5982 9537 0
-5982 729 0
-9537 -729 5982 0
-5983 9538 0
-5983 675 0
-9538 -675 5983 0
-5984 9538 0
-5984 694 0
-9538 -694 5984 0
-5985 9538 0
-5985 712 0
-9538 -712 5985 0
-5986 9538 0
-5986 730 0
-9538 -730 5986 0
-5987 9538 0
-5987 731 0
-9538 -731 5987 0
-5988 9538 0
-5988 732 0
-9538 -732 5988 0
-5989 9538 0
-5989 733 0
-9538 -733 5989 0
-5990 9538 0
-5990 734 0
-9538 -734 5990 0
-5991 9538 0
-5991 735 0
-9538 -735 5991 0
-5992 9538 0
-5992 736 0
-9538 -736 5992 0
-5993 9538 0
-5993 737 0
-9538 -737 5993 0
-5994 9538 0
-5994 738 0
-9538 -738 5994 0
-5995 9538 0
-5995 739 0
-9538 -739 5995 0
-5996 9538 0
-5996 740 0
-9538 -740 5996 0
-5997 9538 0
-5997 741 0
-9538 -741 5997 0
-5998 9538 0
-5998 742 0
-9538 -742 5998 0
-5999 9538 0
-5999 743 0
-9538 -743 5999 0
-6000 9538 0
-6000 744 0
-9538 -744 6000 0
-6001 9538 0
-6001 745 0
-9538 -745 6001 0
-6002 9538 0
-6002 746 0
-9538 -746 6002 0
-6003 9539 0
-6003 676 0
-9539 -676 6003 0
-6004 9539 0
-6004 695 0
-9539 -695 6004 0
-6005 9539 0
-6005 713 0
-9539 -713 6005 0
-6006 9539 0
-6006 730 0
-9539 -730 6006 0
-6007 9539 0
-6007 747 0
-9539 -747 6007 0
-6008 9539 0
-6008 748 0
-9539 -748 6008 0
-6009 9539 0
-6009 749 0
-9539 -749 6009 0
-6010 9539 0
-6010 750 0
-9539 -750 6010 0
-6011 9539 0
-6011 751 0
-9539 -751 6011 0
-6012 9539 0
-6012 752 0
-9539 -752 6012 0
-6013 9539 0
-6013 753 0
-9539 -753 6013 0
-6014 9539 0
-6014 754 0
-9539 -754 6014 0
-6015 9539 0
-6015 755 0
-9539 -755 6015 0
-6016 9539 0
-6016 756 0
-9539 -756 6016 0
-6017 9539 0
-6017 757 0
-9539 -757 6017 0
-6018 9539 0
-6018 758 0
-9539 -758 6018 0
-6019 9539 0
-6019 759 0
-9539 -759 6019 0
-6020 9539 0
-6020 760 0
-9539 -760 6020 0
-6021 9539 0
-6021 761 0
-9539 -761 6021 0
-6022 9539 0
-6022 762 0
-9539 -762 6022 0
-6023 9540 0
-6023 677 0
-9540 -677 6023 0
-6024 9540 0
-6024 696 0
-9540 -696 6024 0
-6025 9540 0
-6025 714 0
-9540 -714 6025 0
-6026 9540 0
-6026 731 0
-9540 -731 6026 0
-6027 9540 0
-6027 747 0
-9540 -747 6027 0
-6028 9540 0
-6028 763 0
-9540 -763 6028 0
-6029 9540 0
-6029 764 0
-9540 -764 6029 0
-6030 9540 0
-6030 765 0
-9540 -765 6030 0
-6031 9540 0
-6031 766 0
-9540 -766 6031 0
-6032 9540 0
-6032 767 0
-9540 -767 6032 0
-6033 9540 0
-6033 768 0
-9540 -768 6033 0
-6034 9540 0
-6034 769 0
-9540 -769 6034 0
-6035 9540 0
-6035 770 0
-9540 -770 6035 0
-6036 9540 0
-6036 771 0
-9540 -771 6036 0
-6037 9540 0
-6037 772 0
-9540 -772 6037 0
-6038 9540 0
-6038 773 0
-9540 -773 6038 0
-6039 9540 0
-6039 774 0
-9540 -774 6039 0
-6040 9540 0
-6040 775 0
-9540 -775 6040 0
-6041 9540 0
-6041 776 0
-9540 -776 6041 0
-6042 9540 0
-6042 777 0
-9540 -777 6042 0
-6043 9541 0
-6043 678 0
-9541 -678 6043 0
-6044 9541 0
-6044 697 0
-9541 -697 6044 0
-6045 9541 0
-6045 715 0
-9541 -715 6045 0
-6046 9541 0
-6046 732 0
-9541 -732 6046 0
-6047 9541 0
-6047 748 0
-9541 -748 6047 0
-6048 9541 0
-6048 763 0
-9541 -763 6048 0
-6049 9541 0
-6049 778 0
-9541 -778 6049 0
-6050 9541 0
-6050 779 0
-9541 -779 6050 0
-6051 9541 0
-6051 780 0
-9541 -780 6051 0
-6052 9541 0
-6052 781 0
-9541 -781 6052 0
-6053 9541 0
-6053 782 0
-9541 -782 6053 0
-6054 9541 0
-6054 783 0
-9541 -783 6054 0
-6055 9541 0
-6055 784 0
-9541 -784 6055 0
-6056 9541 0
-6056 785 0
-9541 -785 6056 0
-6057 9541 0
-6057 786 0
-9541 -786 6057 0
-6058 9541 0
-6058 787 0
-9541 -787 6058 0
-6059 9541 0
-6059 788 0
-9541 -788 6059 0
-6060 9541 0
-6060 789 0
-9541 -789 6060 0
-6061 9541 0
-6061 790 0
-9541 -790 6061 0
-6062 9541 0
-6062 791 0
-9541 -791 6062 0
-6063 9542 0
-6063 679 0
-9542 -679 6063 0
-6064 9542 0
-6064 698 0
-9542 -698 6064 0
-6065 9542 0
-6065 716 0
-9542 -716 6065 0
-6066 9542 0
-6066 733 0
-9542 -733 6066 0
-6067 9542 0
-6067 749 0
-9542 -749 6067 0
-6068 9542 0
-6068 764 0
-9542 -764 6068 0
-6069 9542 0
-6069 778 0
-9542 -778 6069 0
-6070 9542 0
-6070 792 0
-9542 -792 6070 0
-6071 9542 0
-6071 793 0
-9542 -793 6071 0
-6072 9542 0
-6072 794 0
-9542 -794 6072 0
-6073 9542 0
-6073 795 0
-9542 -795 6073 0
-6074 9542 0
-6074 796 0
-9542 -796 6074 0
-6075 9542 0
-6075 797 0
-9542 -797 6075 0
-6076 9542 0
-6076 798 0
-9542 -798 6076 0
-6077 9542 0
-6077 799 0
-9542 -799 6077 0
-6078 9542 0
-6078 800 0
-9542 -800 6078 0
-6079 9542 0
-6079 801 0
-9542 -801 6079 0
-6080 9542 0
-6080 802 0
-9542 -802 6080 0
-6081 9542 0
-6081 803 0
-9542 -803 6081 0
-6082 9542 0
-6082 804 0
-9542 -804 6082 0
-6083 9543 0
-6083 680 0
-9543 -680 6083 0
-6084 9543 0
-6084 699 0
-9543 -699 6084 0
-6085 9543 0
-6085 717 0
-9543 -717 6085 0
-6086 9543 0
-6086 734 0
-9543 -734 6086 0
-6087 9543 0
-6087 750 0
-9543 -750 6087 0
-6088 9543 0
-6088 765 0
-9543 -765 6088 0
-6089 9543 0
-6089 779 0
-9543 -779 6089 0
-6090 9543 0
-6090 792 0
-9543 -792 6090 0
-6091 9543 0
-6091 805 0
-9543 -805 6091 0
-6092 9543 0
-6092 806 0
-9543 -806 6092 0
-6093 9543 0
-6093 807 0
-9543 -807 6093 0
-6094 9543 0
-6094 808 0
-9543 -808 6094 0
-6095 9543 0
-6095 809 0
-9543 -809 6095 0
-6096 9543 0
-6096 810 0
-9543 -810 6096 0
-6097 9543 0
-6097 811 0
-9543 -811 6097 0
-6098 9543 0
-6098 812 0
-9543 -812 6098 0
-6099 9543 0
-6099 813 0
-9543 -813 6099 0
-6100 9543 0
-6100 814 0
-9543 -814 6100 0
-6101 9543 0
-6101 815 0
-9543 -815 6101 0
-6102 9543 0
-6102 816 0
-9543 -816 6102 0
-6103 9544 0
-6103 681 0
-9544 -681 6103 0
-6104 9544 0
-6104 700 0
-9544 -700 6104 0
-6105 9544 0
-6105 718 0
-9544 -718 6105 0
-6106 9544 0
-6106 735 0
-9544 -735 6106 0
-6107 9544 0
-6107 751 0
-9544 -751 6107 0
-6108 9544 0
-6108 766 0
-9544 -766 6108 0
-6109 9544 0
-6109 780 0
-9544 -780 6109 0
-6110 9544 0
-6110 793 0
-9544 -793 6110 0
-6111 9544 0
-6111 805 0
-9544 -805 6111 0
-6112 9544 0
-6112 817 0
-9544 -817 6112 0
-6113 9544 0
-6113 818 0
-9544 -818 6113 0
-6114 9544 0
-6114 819 0
-9544 -819 6114 0
-6115 9544 0
-6115 820 0
-9544 -820 6115 0
-6116 9544 0
-6116 821 0
-9544 -821 6116 0
-6117 9544 0
-6117 822 0
-9544 -822 6117 0
-6118 9544 0
-6118 823 0
-9544 -823 6118 0
-6119 9544 0
-6119 824 0
-9544 -824 6119 0
-6120 9544 0
-6120 825 0
-9544 -825 6120 0
-6121 9544 0
-6121 826 0
-9544 -826 6121 0
-6122 9544 0
-6122 827 0
-9544 -827 6122 0
-6123 9545 0
-6123 682 0
-9545 -682 6123 0
-6124 9545 0
-6124 701 0
-9545 -701 6124 0
-6125 9545 0
-6125 719 0
-9545 -719 6125 0
-6126 9545 0
-6126 736 0
-9545 -736 6126 0
-6127 9545 0
-6127 752 0
-9545 -752 6127 0
-6128 9545 0
-6128 767 0
-9545 -767 6128 0
-6129 9545 0
-6129 781 0
-9545 -781 6129 0
-6130 9545 0
-6130 794 0
-9545 -794 6130 0
-6131 9545 0
-6131 806 0
-9545 -806 6131 0
-6132 9545 0
-6132 817 0
-9545 -817 6132 0
-6133 9545 0
-6133 828 0
-9545 -828 6133 0
-6134 9545 0
-6134 829 0
-9545 -829 6134 0
-6135 9545 0
-6135 830 0
-9545 -830 6135 0
-6136 9545 0
-6136 831 0
-9545 -831 6136 0
-6137 9545 0
-6137 832 0
-9545 -832 6137 0
-6138 9545 0
-6138 833 0
-9545 -833 6138 0
-6139 9545 0
-6139 834 0
-9545 -834 6139 0
-6140 9545 0
-6140 835 0
-9545 -835 6140 0
-6141 9545 0
-6141 836 0
-9545 -836 6141 0
-6142 9545 0
-6142 837 0
-9545 -837 6142 0
-6143 9546 0
-6143 683 0
-9546 -683 6143 0
-6144 9546 0
-6144 702 0
-9546 -702 6144 0
-6145 9546 0
-6145 720 0
-9546 -720 6145 0
-6146 9546 0
-6146 737 0
-9546 -737 6146 0
-6147 9546 0
-6147 753 0
-9546 -753 6147 0
-6148 9546 0
-6148 768 0
-9546 -768 6148 0
-6149 9546 0
-6149 782 0
-9546 -782 6149 0
-6150 9546 0
-6150 795 0
-9546 -795 6150 0
-6151 9546 0
-6151 807 0
-9546 -807 6151 0
-6152 9546 0
-6152 818 0
-9546 -818 6152 0
-6153 9546 0
-6153 828 0
-9546 -828 6153 0
-6154 9546 0
-6154 838 0
-9546 -838 6154 0
-6155 9546 0
-6155 839 0
-9546 -839 6155 0
-6156 9546 0
-6156 840 0
-9546 -840 6156 0
-6157 9546 0
-6157 841 0
-9546 -841 6157 0
-6158 9546 0
-6158 842 0
-9546 -842 6158 0
-6159 9546 0
-6159 843 0
-9546 -843 6159 0
-6160 9546 0
-6160 844 0
-9546 -844 6160 0
-6161 9546 0
-6161 845 0
-9546 -845 6161 0
-6162 9546 0
-6162 846 0
-9546 -846 6162 0
-6163 9547 0
-6163 684 0
-9547 -684 6163 0
-6164 9547 0
-6164 703 0
-9547 -703 6164 0
-6165 9547 0
-6165 721 0
-9547 -721 6165 0
-6166 9547 0
-6166 738 0
-9547 -738 6166 0
-6167 9547 0
-6167 754 0
-9547 -754 6167 0
-6168 9547 0
-6168 769 0
-9547 -769 6168 0
-6169 9547 0
-6169 783 0
-9547 -783 6169 0
-6170 9547 0
-6170 796 0
-9547 -796 6170 0
-6171 9547 0
-6171 808 0
-9547 -808 6171 0
-6172 9547 0
-6172 819 0
-9547 -819 6172 0
-6173 9547 0
-6173 829 0
-9547 -829 6173 0
-6174 9547 0
-6174 838 0
-9547 -838 6174 0
-6175 9547 0
-6175 847 0
-9547 -847 6175 0
-6176 9547 0
-6176 848 0
-9547 -848 6176 0
-6177 9547 0
-6177 849 0
-9547 -849 6177 0
-6178 9547 0
-6178 850 0
-9547 -850 6178 0
-6179 9547 0
-6179 851 0
-9547 -851 6179 0
-6180 9547 0
-6180 852 0
-9547 -852 6180 0
-6181 9547 0
-6181 853 0
-9547 -853 6181 0
-6182 9547 0
-6182 854 0
-9547 -854 6182 0
-6183 9548 0
-6183 685 0
-9548 -685 6183 0
-6184 9548 0
-6184 704 0
-9548 -704 6184 0
-6185 9548 0
-6185 722 0
-9548 -722 6185 0
-6186 9548 0
-6186 739 0
-9548 -739 6186 0
-6187 9548 0
-6187 755 0
-9548 -755 6187 0
-6188 9548 0
-6188 770 0
-9548 -770 6188 0
-6189 9548 0
-6189 784 0
-9548 -784 6189 0
-6190 9548 0
-6190 797 0
-9548 -797 6190 0
-6191 9548 0
-6191 809 0
-9548 -809 6191 0
-6192 9548 0
-6192 820 0
-9548 -820 6192 0
-6193 9548 0
-6193 830 0
-9548 -830 6193 0
-6194 9548 0
-6194 839 0
-9548 -839 6194 0
-6195 9548 0
-6195 847 0
-9548 -847 6195 0
-6196 9548 0
-6196 855 0
-9548 -855 6196 0
-6197 9548 0
-6197 856 0
-9548 -856 6197 0
-6198 9548 0
-6198 857 0
-9548 -857 6198 0
-6199 9548 0
-6199 858 0
-9548 -858 6199 0
-6200 9548 0
-6200 859 0
-9548 -859 6200 0
-6201 9548 0
-6201 860 0
-9548 -860 6201 0
-6202 9548 0
-6202 861 0
-9548 -861 6202 0
-6203 9549 0
-6203 686 0
-9549 -686 6203 0
-6204 9549 0
-6204 705 0
-9549 -705 6204 0
-6205 9549 0
-6205 723 0
-9549 -723 6205 0
-6206 9549 0
-6206 740 0
-9549 -740 6206 0
-6207 9549 0
-6207 756 0
-9549 -756 6207 0
-6208 9549 0
-6208 771 0
-9549 -771 6208 0
-6209 9549 0
-6209 785 0
-9549 -785 6209 0
-6210 9549 0
-6210 798 0
-9549 -798 6210 0
-6211 9549 0
-6211 810 0
-9549 -810 6211 0
-6212 9549 0
-6212 821 0
-9549 -821 6212 0
-6213 9549 0
-6213 831 0
-9549 -831 6213 0
-6214 9549 0
-6214 840 0
-9549 -840 6214 0
-6215 9549 0
-6215 848 0
-9549 -848 6215 0
-6216 9549 0
-6216 855 0
-9549 -855 6216 0
-6217 9549 0
-6217 862 0
-9549 -862 6217 0
-6218 9549 0
-6218 863 0
-9549 -863 6218 0
-6219 9549 0
-6219 864 0
-9549 -864 6219 0
-6220 9549 0
-6220 865 0
-9549 -865 6220 0
-6221 9549 0
-6221 866 0
-9549 -866 6221 0
-6222 9549 0
-6222 867 0
-9549 -867 6222 0
-6223 9550 0
-6223 687 0
-9550 -687 6223 0
-6224 9550 0
-6224 706 0
-9550 -706 6224 0
-6225 9550 0
-6225 724 0
-9550 -724 6225 0
-6226 9550 0
-6226 741 0
-9550 -741 6226 0
-6227 9550 0
-6227 757 0
-9550 -757 6227 0
-6228 9550 0
-6228 772 0
-9550 -772 6228 0
-6229 9550 0
-6229 786 0
-9550 -786 6229 0
-6230 9550 0
-6230 799 0
-9550 -799 6230 0
-6231 9550 0
-6231 811 0
-9550 -811 6231 0
-6232 9550 0
-6232 822 0
-9550 -822 6232 0
-6233 9550 0
-6233 832 0
-9550 -832 6233 0
-6234 9550 0
-6234 841 0
-9550 -841 6234 0
-6235 9550 0
-6235 849 0
-9550 -849 6235 0
-6236 9550 0
-6236 856 0
-9550 -856 6236 0
-6237 9550 0
-6237 862 0
-9550 -862 6237 0
-6238 9550 0
-6238 868 0
-9550 -868 6238 0
-6239 9550 0
-6239 869 0
-9550 -869 6239 0
-6240 9550 0
-6240 870 0
-9550 -870 6240 0
-6241 9550 0
-6241 871 0
-9550 -871 6241 0
-6242 9550 0
-6242 872 0
-9550 -872 6242 0
-6243 9551 0
-6243 688 0
-9551 -688 6243 0
-6244 9551 0
-6244 707 0
-9551 -707 6244 0
-6245 9551 0
-6245 725 0
-9551 -725 6245 0
-6246 9551 0
-6246 742 0
-9551 -742 6246 0
-6247 9551 0
-6247 758 0
-9551 -758 6247 0
-6248 9551 0
-6248 773 0
-9551 -773 6248 0
-6249 9551 0
-6249 787 0
-9551 -787 6249 0
-6250 9551 0
-6250 800 0
-9551 -800 6250 0
-6251 9551 0
-6251 812 0
-9551 -812 6251 0
-6252 9551 0
-6252 823 0
-9551 -823 6252 0
-6253 9551 0
-6253 833 0
-9551 -833 6253 0
-6254 9551 0
-6254 842 0
-9551 -842 6254 0
-6255 9551 0
-6255 850 0
-9551 -850 6255 0
-6256 9551 0
-6256 857 0
-9551 -857 6256 0
-6257 9551 0
-6257 863 0
-9551 -863 6257 0
-6258 9551 0
-6258 868 0
-9551 -868 6258 0
-6259 9551 0
-6259 873 0
-9551 -873 6259 0
-6260 9551 0
-6260 874 0
-9551 -874 6260 0
-6261 9551 0
-6261 875 0
-9551 -875 6261 0
-6262 9551 0
-6262 876 0
-9551 -876 6262 0
-6263 9552 0
-6263 689 0
-9552 -689 6263 0
-6264 9552 0
-6264 708 0
-9552 -708 6264 0
-6265 9552 0
-6265 726 0
-9552 -726 6265 0
-6266 9552 0
-6266 743 0
-9552 -743 6266 0
-6267 9552 0
-6267 759 0
-9552 -759 6267 0
-6268 9552 0
-6268 774 0
-9552 -774 6268 0
-6269 9552 0
-6269 788 0
-9552 -788 6269 0
-6270 9552 0
-6270 801 0
-9552 -801 6270 0
-6271 9552 0
-6271 813 0
-9552 -813 6271 0
-6272 9552 0
-6272 824 0
-9552 -824 6272 0
-6273 9552 0
-6273 834 0
-9552 -834 6273 0
-6274 9552 0
-6274 843 0
-9552 -843 6274 0
-6275 9552 0
-6275 851 0
-9552 -851 6275 0
-6276 9552 0
-6276 858 0
-9552 -858 6276 0
-6277 9552 0
-6277 864 0
-9552 -864 6277 0
-6278 9552 0
-6278 869 0
-9552 -869 6278 0
-6279 9552 0
-6279 873 0
-9552 -873 6279 0
-6280 9552 0
-6280 877 0
-9552 -877 6280 0
-6281 9552 0
-6281 878 0
-9552 -878 6281 0
-6282 9552 0
-6282 879 0
-9552 -879 6282 0
-6283 9553 0
-6283 690 0
-9553 -690 6283 0
-6284 9553 0
-6284 709 0
-9553 -709 6284 0
-6285 9553 0
-6285 727 0
-9553 -727 6285 0
-6286 9553 0
-6286 744 0
-9553 -744 6286 0
-6287 9553 0
-6287 760 0
-9553 -760 6287 0
-6288 9553 0
-6288 775 0
-9553 -775 6288 0
-6289 9553 0
-6289 789 0
-9553 -789 6289 0
-6290 9553 0
-6290 802 0
-9553 -802 6290 0
-6291 9553 0
-6291 814 0
-9553 -814 6291 0
-6292 9553 0
-6292 825 0
-9553 -825 6292 0
-6293 9553 0
-6293 835 0
-9553 -835 6293 0
-6294 9553 0
-6294 844 0
-9553 -844 6294 0
-6295 9553 0
-6295 852 0
-9553 -852 6295 0
-6296 9553 0
-6296 859 0
-9553 -859 6296 0
-6297 9553 0
-6297 865 0
-9553 -865 6297 0
-6298 9553 0
-6298 870 0
-9553 -870 6298 0
-6299 9553 0
-6299 874 0
-9553 -874 6299 0
-6300 9553 0
-6300 877 0
-9553 -877 6300 0
-6301 9553 0
-6301 880 0
-9553 -880 6301 0
-6302 9553 0
-6302 881 0
-9553 -881 6302 0
-6303 9554 0
-6303 691 0
-9554 -691 6303 0
-6304 9554 0
-6304 710 0
-9554 -710 6304 0
-6305 9554 0
-6305 728 0
-9554 -728 6305 0
-6306 9554 0
-6306 745 0
-9554 -745 6306 0
-6307 9554 0
-6307 761 0
-9554 -761 6307 0
-6308 9554 0
-6308 776 0
-9554 -776 6308 0
-6309 9554 0
-6309 790 0
-9554 -790 6309 0
-6310 9554 0
-6310 803 0
-9554 -803 6310 0
-6311 9554 0
-6311 815 0
-9554 -815 6311 0
-6312 9554 0
-6312 826 0
-9554 -826 6312 0
-6313 9554 0
-6313 836 0
-9554 -836 6313 0
-6314 9554 0
-6314 845 0
-9554 -845 6314 0
-6315 9554 0
-6315 853 0
-9554 -853 6315 0
-6316 9554 0
-6316 860 0
-9554 -860 6316 0
-6317 9554 0
-6317 866 0
-9554 -866 6317 0
-6318 9554 0
-6318 871 0
-9554 -871 6318 0
-6319 9554 0
-6319 875 0
-9554 -875 6319 0
-6320 9554 0
-6320 878 0
-9554 -878 6320 0
-6321 9554 0
-6321 880 0
-9554 -880 6321 0
-6322 9554 0
-6322 882 0
-9554 -882 6322 0
-6323 9555 0
-6323 692 0
-9555 -692 6323 0
-6324 9555 0
-6324 711 0
-9555 -711 6324 0
-6325 9555 0
-6325 729 0
-9555 -729 6325 0
-6326 9555 0
-6326 746 0
-9555 -746 6326 0
-6327 9555 0
-6327 762 0
-9555 -762 6327 0
-6328 9555 0
-6328 777 0
-9555 -777 6328 0
-6329 9555 0
-6329 791 0
-9555 -791 6329 0
-6330 9555 0
-6330 804 0
-9555 -804 6330 0
-6331 9555 0
-6331 816 0
-9555 -816 6331 0
-6332 9555 0
-6332 827 0
-9555 -827 6332 0
-6333 9555 0
-6333 837 0
-9555 -837 6333 0
-6334 9555 0
-6334 846 0
-9555 -846 6334 0
-6335 9555 0
-6335 854 0
-9555 -854 6335 0
-6336 9555 0
-6336 861 0
-9555 -861 6336 0
-6337 9555 0
-6337 867 0
-9555 -867 6337 0
-6338 9555 0
-6338 872 0
-9555 -872 6338 0
-6339 9555 0
-6339 876 0
-9555 -876 6339 0
-6340 9555 0
-6340 879 0
-9555 -879 6340 0
-6341 9555 0
-6341 881 0
-9555 -881 6341 0
-6342 9555 0
-6342 882 0
-9555 -882 6342 0
-6343 9556 0
-6343 673 0
-9556 -673 6343 0
-6344 9556 0
-6344 674 0
-9556 -674 6344 0
-6345 9556 0
-6345 675 0
-9556 -675 6345 0
-6346 9556 0
-6346 676 0
-9556 -676 6346 0
-6347 9556 0
-6347 677 0
-9556 -677 6347 0
-6348 9556 0
-6348 678 0
-9556 -678 6348 0
-6349 9556 0
-6349 679 0
-9556 -679 6349 0
-6350 9556 0
-6350 680 0
-9556 -680 6350 0
-6351 9556 0
-6351 681 0
-9556 -681 6351 0
-6352 9556 0
-6352 682 0
-9556 -682 6352 0
-6353 9556 0
-6353 683 0
-9556 -683 6353 0
-6354 9556 0
-6354 684 0
-9556 -684 6354 0
-6355 9556 0
-6355 685 0
-9556 -685 6355 0
-6356 9556 0
-6356 686 0
-9556 -686 6356 0
-6357 9556 0
-6357 687 0
-9556 -687 6357 0
-6358 9556 0
-6358 688 0
-9556 -688 6358 0
-6359 9556 0
-6359 689 0
-9556 -689 6359 0
-6360 9556 0
-6360 690 0
-9556 -690 6360 0
-6361 9556 0
-6361 691 0
-9556 -691 6361 0
-6362 9556 0
-6362 692 0
-9556 -692 6362 0
-6363 9557 0
-6363 673 0
-9557 -673 6363 0
-6364 9557 0
-6364 693 0
-9557 -693 6364 0
-6365 9557 0
-6365 694 0
-9557 -694 6365 0
-6366 9557 0
-6366 695 0
-9557 -695 6366 0
-6367 9557 0
-6367 696 0
-9557 -696 6367 0
-6368 9557 0
-6368 697 0
-9557 -697 6368 0
-6369 9557 0
-6369 698 0
-9557 -698 6369 0
-6370 9557 0
-6370 699 0
-9557 -699 6370 0
-6371 9557 0
-6371 700 0
-9557 -700 6371 0
-6372 9557 0
-6372 701 0
-9557 -701 6372 0
-6373 9557 0
-6373 702 0
-9557 -702 6373 0
-6374 9557 0
-6374 703 0
-9557 -703 6374 0
-6375 9557 0
-6375 704 0
-9557 -704 6375 0
-6376 9557 0
-6376 705 0
-9557 -705 6376 0
-6377 9557 0
-6377 706 0
-9557 -706 6377 0
-6378 9557 0
-6378 707 0
-9557 -707 6378 0
-6379 9557 0
-6379 708 0
-9557 -708 6379 0
-6380 9557 0
-6380 709 0
-9557 -709 6380 0
-6381 9557 0
-6381 710 0
-9557 -710 6381 0
-6382 9557 0
-6382 711 0
-9557 -711 6382 0
-6383 9558 0
-6383 674 0
-9558 -674 6383 0
-6384 9558 0
-6384 693 0
-9558 -693 6384 0
-6385 9558 0
-6385 712 0
-9558 -712 6385 0
-6386 9558 0
-6386 713 0
-9558 -713 6386 0
-6387 9558 0
-6387 714 0
-9558 -714 6387 0
-6388 9558 0
-6388 715 0
-9558 -715 6388 0
-6389 9558 0
-6389 716 0
-9558 -716 6389 0
-6390 9558 0
-6390 717 0
-9558 -717 6390 0
-6391 9558 0
-6391 718 0
-9558 -718 6391 0
-6392 9558 0
-6392 719 0
-9558 -719 6392 0
-6393 9558 0
-6393 720 0
-9558 -720 6393 0
-6394 9558 0
-6394 721 0
-9558 -721 6394 0
-6395 9558 0
-6395 722 0
-9558 -722 6395 0
-6396 9558 0
-6396 723 0
-9558 -723 6396 0
-6397 9558 0
-6397 724 0
-9558 -724 6397 0
-6398 9558 0
-6398 725 0
-9558 -725 6398 0
-6399 9558 0
-6399 726 0
-9558 -726 6399 0
-6400 9558 0
-6400 727 0
-9558 -727 6400 0
-6401 9558 0
-6401 728 0
-9558 -728 6401 0
-6402 9558 0
-6402 729 0
-9558 -729 6402 0
-6403 9559 0
-6403 675 0
-9559 -675 6403 0
-6404 9559 0
-6404 694 0
-9559 -694 6404 0
-6405 9559 0
-6405 712 0
-9559 -712 6405 0
-6406 9559 0
-6406 730 0
-9559 -730 6406 0
-6407 9559 0
-6407 731 0
-9559 -731 6407 0
-6408 9559 0
-6408 732 0
-9559 -732 6408 0
-6409 9559 0
-6409 733 0
-9559 -733 6409 0
-6410 9559 0
-6410 734 0
-9559 -734 6410 0
-6411 9559 0
-6411 735 0
-9559 -735 6411 0
-6412 9559 0
-6412 736 0
-9559 -736 6412 0
-6413 9559 0
-6413 737 0
-9559 -737 6413 0
-6414 9559 0
-6414 738 0
-9559 -738 6414 0
-6415 9559 0
-6415 739 0
-9559 -739 6415 0
-6416 9559 0
-6416 740 0
-9559 -740 6416 0
-6417 9559 0
-6417 741 0
-9559 -741 6417 0
-6418 9559 0
-6418 742 0
-9559 -742 6418 0
-6419 9559 0
-6419 743 0
-9559 -743 6419 0
-6420 9559 0
-6420 744 0
-9559 -744 6420 0
-6421 9559 0
-6421 745 0
-9559 -745 6421 0
-6422 9559 0
-6422 746 0
-9559 -746 6422 0
-6423 9560 0
-6423 676 0
-9560 -676 6423 0
-6424 9560 0
-6424 695 0
-9560 -695 6424 0
-6425 9560 0
-6425 713 0
-9560 -713 6425 0
-6426 9560 0
-6426 730 0
-9560 -730 6426 0
-6427 9560 0
-6427 747 0
-9560 -747 6427 0
-6428 9560 0
-6428 748 0
-9560 -748 6428 0
-6429 9560 0
-6429 749 0
-9560 -749 6429 0
-6430 9560 0
-6430 750 0
-9560 -750 6430 0
-6431 9560 0
-6431 751 0
-9560 -751 6431 0
-6432 9560 0
-6432 752 0
-9560 -752 6432 0
-6433 9560 0
-6433 753 0
-9560 -753 6433 0
-6434 9560 0
-6434 754 0
-9560 -754 6434 0
-6435 9560 0
-6435 755 0
-9560 -755 6435 0
-6436 9560 0
-6436 756 0
-9560 -756 6436 0
-6437 9560 0
-6437 757 0
-9560 -757 6437 0
-6438 9560 0
-6438 758 0
-9560 -758 6438 0
-6439 9560 0
-6439 759 0
-9560 -759 6439 0
-6440 9560 0
-6440 760 0
-9560 -760 6440 0
-6441 9560 0
-6441 761 0
-9560 -761 6441 0
-6442 9560 0
-6442 762 0
-9560 -762 6442 0
-6443 9561 0
-6443 677 0
-9561 -677 6443 0
-6444 9561 0
-6444 696 0
-9561 -696 6444 0
-6445 9561 0
-6445 714 0
-9561 -714 6445 0
-6446 9561 0
-6446 731 0
-9561 -731 6446 0
-6447 9561 0
-6447 747 0
-9561 -747 6447 0
-6448 9561 0
-6448 763 0
-9561 -763 6448 0
-6449 9561 0
-6449 764 0
-9561 -764 6449 0
-6450 9561 0
-6450 765 0
-9561 -765 6450 0
-6451 9561 0
-6451 766 0
-9561 -766 6451 0
-6452 9561 0
-6452 767 0
-9561 -767 6452 0
-6453 9561 0
-6453 768 0
-9561 -768 6453 0
-6454 9561 0
-6454 769 0
-9561 -769 6454 0
-6455 9561 0
-6455 770 0
-9561 -770 6455 0
-6456 9561 0
-6456 771 0
-9561 -771 6456 0
-6457 9561 0
-6457 772 0
-9561 -772 6457 0
-6458 9561 0
-6458 773 0
-9561 -773 6458 0
-6459 9561 0
-6459 774 0
-9561 -774 6459 0
-6460 9561 0
-6460 775 0
-9561 -775 6460 0
-6461 9561 0
-6461 776 0
-9561 -776 6461 0
-6462 9561 0
-6462 777 0
-9561 -777 6462 0
-6463 9562 0
-6463 678 0
-9562 -678 6463 0
-6464 9562 0
-6464 697 0
-9562 -697 6464 0
-6465 9562 0
-6465 715 0
-9562 -715 6465 0
-6466 9562 0
-6466 732 0
-9562 -732 6466 0
-6467 9562 0
-6467 748 0
-9562 -748 6467 0
-6468 9562 0
-6468 763 0
-9562 -763 6468 0
-6469 9562 0
-6469 778 0
-9562 -778 6469 0
-6470 9562 0
-6470 779 0
-9562 -779 6470 0
-6471 9562 0
-6471 780 0
-9562 -780 6471 0
-6472 9562 0
-6472 781 0
-9562 -781 6472 0
-6473 9562 0
-6473 782 0
-9562 -782 6473 0
-6474 9562 0
-6474 783 0
-9562 -783 6474 0
-6475 9562 0
-6475 784 0
-9562 -784 6475 0
-6476 9562 0
-6476 785 0
-9562 -785 6476 0
-6477 9562 0
-6477 786 0
-9562 -786 6477 0
-6478 9562 0
-6478 787 0
-9562 -787 6478 0
-6479 9562 0
-6479 788 0
-9562 -788 6479 0
-6480 9562 0
-6480 789 0
-9562 -789 6480 0
-6481 9562 0
-6481 790 0
-9562 -790 6481 0
-6482 9562 0
-6482 791 0
-9562 -791 6482 0
-6483 9563 0
-6483 679 0
-9563 -679 6483 0
-6484 9563 0
-6484 698 0
-9563 -698 6484 0
-6485 9563 0
-6485 716 0
-9563 -716 6485 0
-6486 9563 0
-6486 733 0
-9563 -733 6486 0
-6487 9563 0
-6487 749 0
-9563 -749 6487 0
-6488 9563 0
-6488 764 0
-9563 -764 6488 0
-6489 9563 0
-6489 778 0
-9563 -778 6489 0
-6490 9563 0
-6490 792 0
-9563 -792 6490 0
-6491 9563 0
-6491 793 0
-9563 -793 6491 0
-6492 9563 0
-6492 794 0
-9563 -794 6492 0
-6493 9563 0
-6493 795 0
-9563 -795 6493 0
-6494 9563 0
-6494 796 0
-9563 -796 6494 0
-6495 9563 0
-6495 797 0
-9563 -797 6495 0
-6496 9563 0
-6496 798 0
-9563 -798 6496 0
-6497 9563 0
-6497 799 0
-9563 -799 6497 0
-6498 9563 0
-6498 800 0
-9563 -800 6498 0
-6499 9563 0
-6499 801 0
-9563 -801 6499 0
-6500 9563 0
-6500 802 0
-9563 -802 6500 0
-6501 9563 0
-6501 803 0
-9563 -803 6501 0
-6502 9563 0
-6502 804 0
-9563 -804 6502 0
-6503 9564 0
-6503 680 0
-9564 -680 6503 0
-6504 9564 0
-6504 699 0
-9564 -699 6504 0
-6505 9564 0
-6505 717 0
-9564 -717 6505 0
-6506 9564 0
-6506 734 0
-9564 -734 6506 0
-6507 9564 0
-6507 750 0
-9564 -750 6507 0
-6508 9564 0
-6508 765 0
-9564 -765 6508 0
-6509 9564 0
-6509 779 0
-9564 -779 6509 0
-6510 9564 0
-6510 792 0
-9564 -792 6510 0
-6511 9564 0
-6511 805 0
-9564 -805 6511 0
-6512 9564 0
-6512 806 0
-9564 -806 6512 0
-6513 9564 0
-6513 807 0
-9564 -807 6513 0
-6514 9564 0
-6514 808 0
-9564 -808 6514 0
-6515 9564 0
-6515 809 0
-9564 -809 6515 0
-6516 9564 0
-6516 810 0
-9564 -810 6516 0
-6517 9564 0
-6517 811 0
-9564 -811 6517 0
-6518 9564 0
-6518 812 0
-9564 -812 6518 0
-6519 9564 0
-6519 813 0
-9564 -813 6519 0
-6520 9564 0
-6520 814 0
-9564 -814 6520 0
-6521 9564 0
-6521 815 0
-9564 -815 6521 0
-6522 9564 0
-6522 816 0
-9564 -816 6522 0
-6523 9565 0
-6523 681 0
-9565 -681 6523 0
-6524 9565 0
-6524 700 0
-9565 -700 6524 0
-6525 9565 0
-6525 718 0
-9565 -718 6525 0
-6526 9565 0
-6526 735 0
-9565 -735 6526 0
-6527 9565 0
-6527 751 0
-9565 -751 6527 0
-6528 9565 0
-6528 766 0
-9565 -766 6528 0
-6529 9565 0
-6529 780 0
-9565 -780 6529 0
-6530 9565 0
-6530 793 0
-9565 -793 6530 0
-6531 9565 0
-6531 805 0
-9565 -805 6531 0
-6532 9565 0
-6532 817 0
-9565 -817 6532 0
-6533 9565 0
-6533 818 0
-9565 -818 6533 0
-6534 9565 0
-6534 819 0
-9565 -819 6534 0
-6535 9565 0
-6535 820 0
-9565 -820 6535 0
-6536 9565 0
-6536 821 0
-9565 -821 6536 0
-6537 9565 0
-6537 822 0
-9565 -822 6537 0
-6538 9565 0
-6538 823 0
-9565 -823 6538 0
-6539 9565 0
-6539 824 0
-9565 -824 6539 0
-6540 9565 0
-6540 825 0
-9565 -825 6540 0
-6541 9565 0
-6541 826 0
-9565 -826 6541 0
-6542 9565 0
-6542 827 0
-9565 -827 6542 0
-6543 9566 0
-6543 682 0
-9566 -682 6543 0
-6544 9566 0
-6544 701 0
-9566 -701 6544 0
-6545 9566 0
-6545 719 0
-9566 -719 6545 0
-6546 9566 0
-6546 736 0
-9566 -736 6546 0
-6547 9566 0
-6547 752 0
-9566 -752 6547 0
-6548 9566 0
-6548 767 0
-9566 -767 6548 0
-6549 9566 0
-6549 781 0
-9566 -781 6549 0
-6550 9566 0
-6550 794 0
-9566 -794 6550 0
-6551 9566 0
-6551 806 0
-9566 -806 6551 0
-6552 9566 0
-6552 817 0
-9566 -817 6552 0
-6553 9566 0
-6553 828 0
-9566 -828 6553 0
-6554 9566 0
-6554 829 0
-9566 -829 6554 0
-6555 9566 0
-6555 830 0
-9566 -830 6555 0
-6556 9566 0
-6556 831 0
-9566 -831 6556 0
-6557 9566 0
-6557 832 0
-9566 -832 6557 0
-6558 9566 0
-6558 833 0
-9566 -833 6558 0
-6559 9566 0
-6559 834 0
-9566 -834 6559 0
-6560 9566 0
-6560 835 0
-9566 -835 6560 0
-6561 9566 0
-6561 836 0
-9566 -836 6561 0
-6562 9566 0
-6562 837 0
-9566 -837 6562 0
-6563 9567 0
-6563 683 0
-9567 -683 6563 0
-6564 9567 0
-6564 702 0
-9567 -702 6564 0
-6565 9567 0
-6565 720 0
-9567 -720 6565 0
-6566 9567 0
-6566 737 0
-9567 -737 6566 0
-6567 9567 0
-6567 753 0
-9567 -753 6567 0
-6568 9567 0
-6568 768 0
-9567 -768 6568 0
-6569 9567 0
-6569 782 0
-9567 -782 6569 0
-6570 9567 0
-6570 795 0
-9567 -795 6570 0
-6571 9567 0
-6571 807 0
-9567 -807 6571 0
-6572 9567 0
-6572 818 0
-9567 -818 6572 0
-6573 9567 0
-6573 828 0
-9567 -828 6573 0
-6574 9567 0
-6574 838 0
-9567 -838 6574 0
-6575 9567 0
-6575 839 0
-9567 -839 6575 0
-6576 9567 0
-6576 840 0
-9567 -840 6576 0
-6577 9567 0
-6577 841 0
-9567 -841 6577 0
-6578 9567 0
-6578 842 0
-9567 -842 6578 0
-6579 9567 0
-6579 843 0
-9567 -843 6579 0
-6580 9567 0
-6580 844 0
-9567 -844 6580 0
-6581 9567 0
-6581 845 0
-9567 -845 6581 0
-6582 9567 0
-6582 846 0
-9567 -846 6582 0
-6583 9568 0
-6583 684 0
-9568 -684 6583 0
-6584 9568 0
-6584 703 0
-9568 -703 6584 0
-6585 9568 0
-6585 721 0
-9568 -721 6585 0
-6586 9568 0
-6586 738 0
-9568 -738 6586 0
-6587 9568 0
-6587 754 0
-9568 -754 6587 0
-6588 9568 0
-6588 769 0
-9568 -769 6588 0
-6589 9568 0
-6589 783 0
-9568 -783 6589 0
-6590 9568 0
-6590 796 0
-9568 -796 6590 0
-6591 9568 0
-6591 808 0
-9568 -808 6591 0
-6592 9568 0
-6592 819 0
-9568 -819 6592 0
-6593 9568 0
-6593 829 0
-9568 -829 6593 0
-6594 9568 0
-6594 838 0
-9568 -838 6594 0
-6595 9568 0
-6595 847 0
-9568 -847 6595 0
-6596 9568 0
-6596 848 0
-9568 -848 6596 0
-6597 9568 0
-6597 849 0
-9568 -849 6597 0
-6598 9568 0
-6598 850 0
-9568 -850 6598 0
-6599 9568 0
-6599 851 0
-9568 -851 6599 0
-6600 9568 0
-6600 852 0
-9568 -852 6600 0
-6601 9568 0
-6601 853 0
-9568 -853 6601 0
-6602 9568 0
-6602 854 0
-9568 -854 6602 0
-6603 9569 0
-6603 685 0
-9569 -685 6603 0
-6604 9569 0
-6604 704 0
-9569 -704 6604 0
-6605 9569 0
-6605 722 0
-9569 -722 6605 0
-6606 9569 0
-6606 739 0
-9569 -739 6606 0
-6607 9569 0
-6607 755 0
-9569 -755 6607 0
-6608 9569 0
-6608 770 0
-9569 -770 6608 0
-6609 9569 0
-6609 784 0
-9569 -784 6609 0
-6610 9569 0
-6610 797 0
-9569 -797 6610 0
-6611 9569 0
-6611 809 0
-9569 -809 6611 0
-6612 9569 0
-6612 820 0
-9569 -820 6612 0
-6613 9569 0
-6613 830 0
-9569 -830 6613 0
-6614 9569 0
-6614 839 0
-9569 -839 6614 0
-6615 9569 0
-6615 847 0
-9569 -847 6615 0
-6616 9569 0
-6616 855 0
-9569 -855 6616 0
-6617 9569 0
-6617 856 0
-9569 -856 6617 0
-6618 9569 0
-6618 857 0
-9569 -857 6618 0
-6619 9569 0
-6619 858 0
-9569 -858 6619 0
-6620 9569 0
-6620 859 0
-9569 -859 6620 0
-6621 9569 0
-6621 860 0
-9569 -860 6621 0
-6622 9569 0
-6622 861 0
-9569 -861 6622 0
-6623 9570 0
-6623 686 0
-9570 -686 6623 0
-6624 9570 0
-6624 705 0
-9570 -705 6624 0
-6625 9570 0
-6625 723 0
-9570 -723 6625 0
-6626 9570 0
-6626 740 0
-9570 -740 6626 0
-6627 9570 0
-6627 756 0
-9570 -756 6627 0
-6628 9570 0
-6628 771 0
-9570 -771 6628 0
-6629 9570 0
-6629 785 0
-9570 -785 6629 0
-6630 9570 0
-6630 798 0
-9570 -798 6630 0
-6631 9570 0
-6631 810 0
-9570 -810 6631 0
-6632 9570 0
-6632 821 0
-9570 -821 6632 0
-6633 9570 0
-6633 831 0
-9570 -831 6633 0
-6634 9570 0
-6634 840 0
-9570 -840 6634 0
-6635 9570 0
-6635 848 0
-9570 -848 6635 0
-6636 9570 0
-6636 855 0
-9570 -855 6636 0
-6637 9570 0
-6637 862 0
-9570 -862 6637 0
-6638 9570 0
-6638 863 0
-9570 -863 6638 0
-6639 9570 0
-6639 864 0
-9570 -864 6639 0
-6640 9570 0
-6640 865 0
-9570 -865 6640 0
-6641 9570 0
-6641 866 0
-9570 -866 6641 0
-6642 9570 0
-6642 867 0
-9570 -867 6642 0
-6643 9571 0
-6643 687 0
-9571 -687 6643 0
-6644 9571 0
-6644 706 0
-9571 -706 6644 0
-6645 9571 0
-6645 724 0
-9571 -724 6645 0
-6646 9571 0
-6646 741 0
-9571 -741 6646 0
-6647 9571 0
-6647 757 0
-9571 -757 6647 0
-6648 9571 0
-6648 772 0
-9571 -772 6648 0
-6649 9571 0
-6649 786 0
-9571 -786 6649 0
-6650 9571 0
-6650 799 0
-9571 -799 6650 0
-6651 9571 0
-6651 811 0
-9571 -811 6651 0
-6652 9571 0
-6652 822 0
-9571 -822 6652 0
-6653 9571 0
-6653 832 0
-9571 -832 6653 0
-6654 9571 0
-6654 841 0
-9571 -841 6654 0
-6655 9571 0
-6655 849 0
-9571 -849 6655 0
-6656 9571 0
-6656 856 0
-9571 -856 6656 0
-6657 9571 0
-6657 862 0
-9571 -862 6657 0
-6658 9571 0
-6658 868 0
-9571 -868 6658 0
-6659 9571 0
-6659 869 0
-9571 -869 6659 0
-6660 9571 0
-6660 870 0
-9571 -870 6660 0
-6661 9571 0
-6661 871 0
-9571 -871 6661 0
-6662 9571 0
-6662 872 0
-9571 -872 6662 0
-6663 9572 0
-6663 688 0
-9572 -688 6663 0
-6664 9572 0
-6664 707 0
-9572 -707 6664 0
-6665 9572 0
-6665 725 0
-9572 -725 6665 0
-6666 9572 0
-6666 742 0
-9572 -742 6666 0
-6667 9572 0
-6667 758 0
-9572 -758 6667 0
-6668 9572 0
-6668 773 0
-9572 -773 6668 0
-6669 9572 0
-6669 787 0
-9572 -787 6669 0
-6670 9572 0
-6670 800 0
-9572 -800 6670 0
-6671 9572 0
-6671 812 0
-9572 -812 6671 0
-6672 9572 0
-6672 823 0
-9572 -823 6672 0
-6673 9572 0
-6673 833 0
-9572 -833 6673 0
-6674 9572 0
-6674 842 0
-9572 -842 6674 0
-6675 9572 0
-6675 850 0
-9572 -850 6675 0
-6676 9572 0
-6676 857 0
-9572 -857 6676 0
-6677 9572 0
-6677 863 0
-9572 -863 6677 0
-6678 9572 0
-6678 868 0
-9572 -868 6678 0
-6679 9572 0
-6679 873 0
-9572 -873 6679 0
-6680 9572 0
-6680 874 0
-9572 -874 6680 0
-6681 9572 0
-6681 875 0
-9572 -875 6681 0
-6682 9572 0
-6682 876 0
-9572 -876 6682 0
-6683 9573 0
-6683 689 0
-9573 -689 6683 0
-6684 9573 0
-6684 708 0
-9573 -708 6684 0
-6685 9573 0
-6685 726 0
-9573 -726 6685 0
-6686 9573 0
-6686 743 0
-9573 -743 6686 0
-6687 9573 0
-6687 759 0
-9573 -759 6687 0
-6688 9573 0
-6688 774 0
-9573 -774 6688 0
-6689 9573 0
-6689 788 0
-9573 -788 6689 0
-6690 9573 0
-6690 801 0
-9573 -801 6690 0
-6691 9573 0
-6691 813 0
-9573 -813 6691 0
-6692 9573 0
-6692 824 0
-9573 -824 6692 0
-6693 9573 0
-6693 834 0
-9573 -834 6693 0
-6694 9573 0
-6694 843 0
-9573 -843 6694 0
-6695 9573 0
-6695 851 0
-9573 -851 6695 0
-6696 9573 0
-6696 858 0
-9573 -858 6696 0
-6697 9573 0
-6697 864 0
-9573 -864 6697 0
-6698 9573 0
-6698 869 0
-9573 -869 6698 0
-6699 9573 0
-6699 873 0
-9573 -873 6699 0
-6700 9573 0
-6700 877 0
-9573 -877 6700 0
-6701 9573 0
-6701 878 0
-9573 -878 6701 0
-6702 9573 0
-6702 879 0
-9573 -879 6702 0
-6703 9574 0
-6703 690 0
-9574 -690 6703 0
-6704 9574 0
-6704 709 0
-9574 -709 6704 0
-6705 9574 0
-6705 727 0
-9574 -727 6705 0
-6706 9574 0
-6706 744 0
-9574 -744 6706 0
-6707 9574 0
-6707 760 0
-9574 -760 6707 0
-6708 9574 0
-6708 775 0
-9574 -775 6708 0
-6709 9574 0
-6709 789 0
-9574 -789 6709 0
-6710 9574 0
-6710 802 0
-9574 -802 6710 0
-6711 9574 0
-6711 814 0
-9574 -814 6711 0
-6712 9574 0
-6712 825 0
-9574 -825 6712 0
-6713 9574 0
-6713 835 0
-9574 -835 6713 0
-6714 9574 0
-6714 844 0
-9574 -844 6714 0
-6715 9574 0
-6715 852 0
-9574 -852 6715 0
-6716 9574 0
-6716 859 0
-9574 -859 6716 0
-6717 9574 0
-6717 865 0
-9574 -865 6717 0
-6718 9574 0
-6718 870 0
-9574 -870 6718 0
-6719 9574 0
-6719 874 0
-9574 -874 6719 0
-6720 9574 0
-6720 877 0
-9574 -877 6720 0
-6721 9574 0
-6721 880 0
-9574 -880 6721 0
-6722 9574 0
-6722 881 0
-9574 -881 6722 0
-6723 9575 0
-6723 691 0
-9575 -691 6723 0
-6724 9575 0
-6724 710 0
-9575 -710 6724 0
-6725 9575 0
-6725 728 0
-9575 -728 6725 0
-6726 9575 0
-6726 745 0
-9575 -745 6726 0
-6727 9575 0
-6727 761 0
-9575 -761 6727 0
-6728 9575 0
-6728 776 0
-9575 -776 6728 0
-6729 9575 0
-6729 790 0
-9575 -790 6729 0
-6730 9575 0
-6730 803 0
-9575 -803 6730 0
-6731 9575 0
-6731 815 0
-9575 -815 6731 0
-6732 9575 0
-6732 826 0
-9575 -826 6732 0
-6733 9575 0
-6733 836 0
-9575 -836 6733 0
-6734 9575 0
-6734 845 0
-9575 -845 6734 0
-6735 9575 0
-6735 853 0
-9575 -853 6735 0
-6736 9575 0
-6736 860 0
-9575 -860 6736 0
-6737 9575 0
-6737 866 0
-9575 -866 6737 0
-6738 9575 0
-6738 871 0
-9575 -871 6738 0
-6739 9575 0
-6739 875 0
-9575 -875 6739 0
-6740 9575 0
-6740 878 0
-9575 -878 6740 0
-6741 9575 0
-6741 880 0
-9575 -880 6741 0
-6742 9575 0
-6742 882 0
-9575 -882 6742 0
-6743 9576 0
-6743 692 0
-9576 -692 6743 0
-6744 9576 0
-6744 711 0
-9576 -711 6744 0
-6745 9576 0
-6745 729 0
-9576 -729 6745 0
-6746 9576 0
-6746 746 0
-9576 -746 6746 0
-6747 9576 0
-6747 762 0
-9576 -762 6747 0
-6748 9576 0
-6748 777 0
-9576 -777 6748 0
-6749 9576 0
-6749 791 0
-9576 -791 6749 0
-6750 9576 0
-6750 804 0
-9576 -804 6750 0
-6751 9576 0
-6751 816 0
-9576 -816 6751 0
-6752 9576 0
-6752 827 0
-9576 -827 6752 0
-6753 9576 0
-6753 837 0
-9576 -837 6753 0
-6754 9576 0
-6754 846 0
-9576 -846 6754 0
-6755 9576 0
-6755 854 0
-9576 -854 6755 0
-6756 9576 0
-6756 861 0
-9576 -861 6756 0
-6757 9576 0
-6757 867 0
-9576 -867 6757 0
-6758 9576 0
-6758 872 0
-9576 -872 6758 0
-6759 9576 0
-6759 876 0
-9576 -876 6759 0
-6760 9576 0
-6760 879 0
-9576 -879 6760 0
-6761 9576 0
-6761 881 0
-9576 -881 6761 0
-6762 9576 0
-6762 882 0
-9576 -882 6762 0
-6763 9577 0
-6763 673 0
-9577 -673 6763 0
-6764 9577 0
-6764 674 0
-9577 -674 6764 0
-6765 9577 0
-6765 675 0
-9577 -675 6765 0
-6766 9577 0
-6766 676 0
-9577 -676 6766 0
-6767 9577 0
-6767 677 0
-9577 -677 6767 0
-6768 9577 0
-6768 678 0
-9577 -678 6768 0
-6769 9577 0
-6769 679 0
-9577 -679 6769 0
-6770 9577 0
-6770 680 0
-9577 -680 6770 0
-6771 9577 0
-6771 681 0
-9577 -681 6771 0
-6772 9577 0
-6772 682 0
-9577 -682 6772 0
-6773 9577 0
-6773 683 0
-9577 -683 6773 0
-6774 9577 0
-6774 684 0
-9577 -684 6774 0
-6775 9577 0
-6775 685 0
-9577 -685 6775 0
-6776 9577 0
-6776 686 0
-9577 -686 6776 0
-6777 9577 0
-6777 687 0
-9577 -687 6777 0
-6778 9577 0
-6778 688 0
-9577 -688 6778 0
-6779 9577 0
-6779 689 0
-9577 -689 6779 0
-6780 9577 0
-6780 690 0
-9577 -690 6780 0
-6781 9577 0
-6781 691 0
-9577 -691 6781 0
-6782 9577 0
-6782 692 0
-9577 -692 6782 0
-6783 9578 0
-6783 673 0
-9578 -673 6783 0
-6784 9578 0
-6784 693 0
-9578 -693 6784 0
-6785 9578 0
-6785 694 0
-9578 -694 6785 0
-6786 9578 0
-6786 695 0
-9578 -695 6786 0
-6787 9578 0
-6787 696 0
-9578 -696 6787 0
-6788 9578 0
-6788 697 0
-9578 -697 6788 0
-6789 9578 0
-6789 698 0
-9578 -698 6789 0
-6790 9578 0
-6790 699 0
-9578 -699 6790 0
-6791 9578 0
-6791 700 0
-9578 -700 6791 0
-6792 9578 0
-6792 701 0
-9578 -701 6792 0
-6793 9578 0
-6793 702 0
-9578 -702 6793 0
-6794 9578 0
-6794 703 0
-9578 -703 6794 0
-6795 9578 0
-6795 704 0
-9578 -704 6795 0
-6796 9578 0
-6796 705 0
-9578 -705 6796 0
-6797 9578 0
-6797 706 0
-9578 -706 6797 0
-6798 9578 0
-6798 707 0
-9578 -707 6798 0
-6799 9578 0
-6799 708 0
-9578 -708 6799 0
-6800 9578 0
-6800 709 0
-9578 -709 6800 0
-6801 9578 0
-6801 710 0
-9578 -710 6801 0
-6802 9578 0
-6802 711 0
-9578 -711 6802 0
-6803 9579 0
-6803 674 0
-9579 -674 6803 0
-6804 9579 0
-6804 693 0
-9579 -693 6804 0
-6805 9579 0
-6805 712 0
-9579 -712 6805 0
-6806 9579 0
-6806 713 0
-9579 -713 6806 0
-6807 9579 0
-6807 714 0
-9579 -714 6807 0
-6808 9579 0
-6808 715 0
-9579 -715 6808 0
-6809 9579 0
-6809 716 0
-9579 -716 6809 0
-6810 9579 0
-6810 717 0
-9579 -717 6810 0
-6811 9579 0
-6811 718 0
-9579 -718 6811 0
-6812 9579 0
-6812 719 0
-9579 -719 6812 0
-6813 9579 0
-6813 720 0
-9579 -720 6813 0
-6814 9579 0
-6814 721 0
-9579 -721 6814 0
-6815 9579 0
-6815 722 0
-9579 -722 6815 0
-6816 9579 0
-6816 723 0
-9579 -723 6816 0
-6817 9579 0
-6817 724 0
-9579 -724 6817 0
-6818 9579 0
-6818 725 0
-9579 -725 6818 0
-6819 9579 0
-6819 726 0
-9579 -726 6819 0
-6820 9579 0
-6820 727 0
-9579 -727 6820 0
-6821 9579 0
-6821 728 0
-9579 -728 6821 0
-6822 9579 0
-6822 729 0
-9579 -729 6822 0
-6823 9580 0
-6823 675 0
-9580 -675 6823 0
-6824 9580 0
-6824 694 0
-9580 -694 6824 0
-6825 9580 0
-6825 712 0
-9580 -712 6825 0
-6826 9580 0
-6826 730 0
-9580 -730 6826 0
-6827 9580 0
-6827 731 0
-9580 -731 6827 0
-6828 9580 0
-6828 732 0
-9580 -732 6828 0
-6829 9580 0
-6829 733 0
-9580 -733 6829 0
-6830 9580 0
-6830 734 0
-9580 -734 6830 0
-6831 9580 0
-6831 735 0
-9580 -735 6831 0
-6832 9580 0
-6832 736 0
-9580 -736 6832 0
-6833 9580 0
-6833 737 0
-9580 -737 6833 0
-6834 9580 0
-6834 738 0
-9580 -738 6834 0
-6835 9580 0
-6835 739 0
-9580 -739 6835 0
-6836 9580 0
-6836 740 0
-9580 -740 6836 0
-6837 9580 0
-6837 741 0
-9580 -741 6837 0
-6838 9580 0
-6838 742 0
-9580 -742 6838 0
-6839 9580 0
-6839 743 0
-9580 -743 6839 0
-6840 9580 0
-6840 744 0
-9580 -744 6840 0
-6841 9580 0
-6841 745 0
-9580 -745 6841 0
-6842 9580 0
-6842 746 0
-9580 -746 6842 0
-6843 9581 0
-6843 676 0
-9581 -676 6843 0
-6844 9581 0
-6844 695 0
-9581 -695 6844 0
-6845 9581 0
-6845 713 0
-9581 -713 6845 0
-6846 9581 0
-6846 730 0
-9581 -730 6846 0
-6847 9581 0
-6847 747 0
-9581 -747 6847 0
-6848 9581 0
-6848 748 0
-9581 -748 6848 0
-6849 9581 0
-6849 749 0
-9581 -749 6849 0
-6850 9581 0
-6850 750 0
-9581 -750 6850 0
-6851 9581 0
-6851 751 0
-9581 -751 6851 0
-6852 9581 0
-6852 752 0
-9581 -752 6852 0
-6853 9581 0
-6853 753 0
-9581 -753 6853 0
-6854 9581 0
-6854 754 0
-9581 -754 6854 0
-6855 9581 0
-6855 755 0
-9581 -755 6855 0
-6856 9581 0
-6856 756 0
-9581 -756 6856 0
-6857 9581 0
-6857 757 0
-9581 -757 6857 0
-6858 9581 0
-6858 758 0
-9581 -758 6858 0
-6859 9581 0
-6859 759 0
-9581 -759 6859 0
-6860 9581 0
-6860 760 0
-9581 -760 6860 0
-6861 9581 0
-6861 761 0
-9581 -761 6861 0
-6862 9581 0
-6862 762 0
-9581 -762 6862 0
-6863 9582 0
-6863 677 0
-9582 -677 6863 0
-6864 9582 0
-6864 696 0
-9582 -696 6864 0
-6865 9582 0
-6865 714 0
-9582 -714 6865 0
-6866 9582 0
-6866 731 0
-9582 -731 6866 0
-6867 9582 0
-6867 747 0
-9582 -747 6867 0
-6868 9582 0
-6868 763 0
-9582 -763 6868 0
-6869 9582 0
-6869 764 0
-9582 -764 6869 0
-6870 9582 0
-6870 765 0
-9582 -765 6870 0
-6871 9582 0
-6871 766 0
-9582 -766 6871 0
-6872 9582 0
-6872 767 0
-9582 -767 6872 0
-6873 9582 0
-6873 768 0
-9582 -768 6873 0
-6874 9582 0
-6874 769 0
-9582 -769 6874 0
-6875 9582 0
-6875 770 0
-9582 -770 6875 0
-6876 9582 0
-6876 771 0
-9582 -771 6876 0
-6877 9582 0
-6877 772 0
-9582 -772 6877 0
-6878 9582 0
-6878 773 0
-9582 -773 6878 0
-6879 9582 0
-6879 774 0
-9582 -774 6879 0
-6880 9582 0
-6880 775 0
-9582 -775 6880 0
-6881 9582 0
-6881 776 0
-9582 -776 6881 0
-6882 9582 0
-6882 777 0
-9582 -777 6882 0
-6883 9583 0
-6883 678 0
-9583 -678 6883 0
-6884 9583 0
-6884 697 0
-9583 -697 6884 0
-6885 9583 0
-6885 715 0
-9583 -715 6885 0
-6886 9583 0
-6886 732 0
-9583 -732 6886 0
-6887 9583 0
-6887 748 0
-9583 -748 6887 0
-6888 9583 0
-6888 763 0
-9583 -763 6888 0
-6889 9583 0
-6889 778 0
-9583 -778 6889 0
-6890 9583 0
-6890 779 0
-9583 -779 6890 0
-6891 9583 0
-6891 780 0
-9583 -780 6891 0
-6892 9583 0
-6892 781 0
-9583 -781 6892 0
-6893 9583 0
-6893 782 0
-9583 -782 6893 0
-6894 9583 0
-6894 783 0
-9583 -783 6894 0
-6895 9583 0
-6895 784 0
-9583 -784 6895 0
-6896 9583 0
-6896 785 0
-9583 -785 6896 0
-6897 9583 0
-6897 786 0
-9583 -786 6897 0
-6898 9583 0
-6898 787 0
-9583 -787 6898 0
-6899 9583 0
-6899 788 0
-9583 -788 6899 0
-6900 9583 0
-6900 789 0
-9583 -789 6900 0
-6901 9583 0
-6901 790 0
-9583 -790 6901 0
-6902 9583 0
-6902 791 0
-9583 -791 6902 0
-6903 9584 0
-6903 679 0
-9584 -679 6903 0
-6904 9584 0
-6904 698 0
-9584 -698 6904 0
-6905 9584 0
-6905 716 0
-9584 -716 6905 0
-6906 9584 0
-6906 733 0
-9584 -733 6906 0
-6907 9584 0
-6907 749 0
-9584 -749 6907 0
-6908 9584 0
-6908 764 0
-9584 -764 6908 0
-6909 9584 0
-6909 778 0
-9584 -778 6909 0
-6910 9584 0
-6910 792 0
-9584 -792 6910 0
-6911 9584 0
-6911 793 0
-9584 -793 6911 0
-6912 9584 0
-6912 794 0
-9584 -794 6912 0
-6913 9584 0
-6913 795 0
-9584 -795 6913 0
-6914 9584 0
-6914 796 0
-9584 -796 6914 0
-6915 9584 0
-6915 797 0
-9584 -797 6915 0
-6916 9584 0
-6916 798 0
-9584 -798 6916 0
-6917 9584 0
-6917 799 0
-9584 -799 6917 0
-6918 9584 0
-6918 800 0
-9584 -800 6918 0
-6919 9584 0
-6919 801 0
-9584 -801 6919 0
-6920 9584 0
-6920 802 0
-9584 -802 6920 0
-6921 9584 0
-6921 803 0
-9584 -803 6921 0
-6922 9584 0
-6922 804 0
-9584 -804 6922 0
-6923 9585 0
-6923 680 0
-9585 -680 6923 0
-6924 9585 0
-6924 699 0
-9585 -699 6924 0
-6925 9585 0
-6925 717 0
-9585 -717 6925 0
-6926 9585 0
-6926 734 0
-9585 -734 6926 0
-6927 9585 0
-6927 750 0
-9585 -750 6927 0
-6928 9585 0
-6928 765 0
-9585 -765 6928 0
-6929 9585 0
-6929 779 0
-9585 -779 6929 0
-6930 9585 0
-6930 792 0
-9585 -792 6930 0
-6931 9585 0
-6931 805 0
-9585 -805 6931 0
-6932 9585 0
-6932 806 0
-9585 -806 6932 0
-6933 9585 0
-6933 807 0
-9585 -807 6933 0
-6934 9585 0
-6934 808 0
-9585 -808 6934 0
-6935 9585 0
-6935 809 0
-9585 -809 6935 0
-6936 9585 0
-6936 810 0
-9585 -810 6936 0
-6937 9585 0
-6937 811 0
-9585 -811 6937 0
-6938 9585 0
-6938 812 0
-9585 -812 6938 0
-6939 9585 0
-6939 813 0
-9585 -813 6939 0
-6940 9585 0
-6940 814 0
-9585 -814 6940 0
-6941 9585 0
-6941 815 0
-9585 -815 6941 0
-6942 9585 0
-6942 816 0
-9585 -816 6942 0
-6943 9586 0
-6943 681 0
-9586 -681 6943 0
-6944 9586 0
-6944 700 0
-9586 -700 6944 0
-6945 9586 0
-6945 718 0
-9586 -718 6945 0
-6946 9586 0
-6946 735 0
-9586 -735 6946 0
-6947 9586 0
-6947 751 0
-9586 -751 6947 0
-6948 9586 0
-6948 766 0
-9586 -766 6948 0
-6949 9586 0
-6949 780 0
-9586 -780 6949 0
-6950 9586 0
-6950 793 0
-9586 -793 6950 0
-6951 9586 0
-6951 805 0
-9586 -805 6951 0
-6952 9586 0
-6952 817 0
-9586 -817 6952 0
-6953 9586 0
-6953 818 0
-9586 -818 6953 0
-6954 9586 0
-6954 819 0
-9586 -819 6954 0
-6955 9586 0
-6955 820 0
-9586 -820 6955 0
-6956 9586 0
-6956 821 0
-9586 -821 6956 0
-6957 9586 0
-6957 822 0
-9586 -822 6957 0
-6958 9586 0
-6958 823 0
-9586 -823 6958 0
-6959 9586 0
-6959 824 0
-9586 -824 6959 0
-6960 9586 0
-6960 825 0
-9586 -825 6960 0
-6961 9586 0
-6961 826 0
-9586 -826 6961 0
-6962 9586 0
-6962 827 0
-9586 -827 6962 0
-6963 9587 0
-6963 682 0
-9587 -682 6963 0
-6964 9587 0
-6964 701 0
-9587 -701 6964 0
-6965 9587 0
-6965 719 0
-9587 -719 6965 0
-6966 9587 0
-6966 736 0
-9587 -736 6966 0
-6967 9587 0
-6967 752 0
-9587 -752 6967 0
-6968 9587 0
-6968 767 0
-9587 -767 6968 0
-6969 9587 0
-6969 781 0
-9587 -781 6969 0
-6970 9587 0
-6970 794 0
-9587 -794 6970 0
-6971 9587 0
-6971 806 0
-9587 -806 6971 0
-6972 9587 0
-6972 817 0
-9587 -817 6972 0
-6973 9587 0
-6973 828 0
-9587 -828 6973 0
-6974 9587 0
-6974 829 0
-9587 -829 6974 0
-6975 9587 0
-6975 830 0
-9587 -830 6975 0
-6976 9587 0
-6976 831 0
-9587 -831 6976 0
-6977 9587 0
-6977 832 0
-9587 -832 6977 0
-6978 9587 0
-6978 833 0
-9587 -833 6978 0
-6979 9587 0
-6979 834 0
-9587 -834 6979 0
-6980 9587 0
-6980 835 0
-9587 -835 6980 0
-6981 9587 0
-6981 836 0
-9587 -836 6981 0
-6982 9587 0
-6982 837 0
-9587 -837 6982 0
-6983 9588 0
-6983 683 0
-9588 -683 6983 0
-6984 9588 0
-6984 702 0
-9588 -702 6984 0
-6985 9588 0
-6985 720 0
-9588 -720 6985 0
-6986 9588 0
-6986 737 0
-9588 -737 6986 0
-6987 9588 0
-6987 753 0
-9588 -753 6987 0
-6988 9588 0
-6988 768 0
-9588 -768 6988 0
-6989 9588 0
-6989 782 0
-9588 -782 6989 0
-6990 9588 0
-6990 795 0
-9588 -795 6990 0
-6991 9588 0
-6991 807 0
-9588 -807 6991 0
-6992 9588 0
-6992 818 0
-9588 -818 6992 0
-6993 9588 0
-6993 828 0
-9588 -828 6993 0
-6994 9588 0
-6994 838 0
-9588 -838 6994 0
-6995 9588 0
-6995 839 0
-9588 -839 6995 0
-6996 9588 0
-6996 840 0
-9588 -840 6996 0
-6997 9588 0
-6997 841 0
-9588 -841 6997 0
-6998 9588 0
-6998 842 0
-9588 -842 6998 0
-6999 9588 0
-6999 843 0
-9588 -843 6999 0
-7000 9588 0
-7000 844 0
-9588 -844 7000 0
-7001 9588 0
-7001 845 0
-9588 -845 7001 0
-7002 9588 0
-7002 846 0
-9588 -846 7002 0
-7003 9589 0
-7003 684 0
-9589 -684 7003 0
-7004 9589 0
-7004 703 0
-9589 -703 7004 0
-7005 9589 0
-7005 721 0
-9589 -721 7005 0
-7006 9589 0
-7006 738 0
-9589 -738 7006 0
-7007 9589 0
-7007 754 0
-9589 -754 7007 0
-7008 9589 0
-7008 769 0
-9589 -769 7008 0
-7009 9589 0
-7009 783 0
-9589 -783 7009 0
-7010 9589 0
-7010 796 0
-9589 -796 7010 0
-7011 9589 0
-7011 808 0
-9589 -808 7011 0
-7012 9589 0
-7012 819 0
-9589 -819 7012 0
-7013 9589 0
-7013 829 0
-9589 -829 7013 0
-7014 9589 0
-7014 838 0
-9589 -838 7014 0
-7015 9589 0
-7015 847 0
-9589 -847 7015 0
-7016 9589 0
-7016 848 0
-9589 -848 7016 0
-7017 9589 0
-7017 849 0
-9589 -849 7017 0
-7018 9589 0
-7018 850 0
-9589 -850 7018 0
-7019 9589 0
-7019 851 0
-9589 -851 7019 0
-7020 9589 0
-7020 852 0
-9589 -852 7020 0
-7021 9589 0
-7021 853 0
-9589 -853 7021 0
-7022 9589 0
-7022 854 0
-9589 -854 7022 0
-7023 9590 0
-7023 685 0
-9590 -685 7023 0
-7024 9590 0
-7024 704 0
-9590 -704 7024 0
-7025 9590 0
-7025 722 0
-9590 -722 7025 0
-7026 9590 0
-7026 739 0
-9590 -739 7026 0
-7027 9590 0
-7027 755 0
-9590 -755 7027 0
-7028 9590 0
-7028 770 0
-9590 -770 7028 0
-7029 9590 0
-7029 784 0
-9590 -784 7029 0
-7030 9590 0
-7030 797 0
-9590 -797 7030 0
-7031 9590 0
-7031 809 0
-9590 -809 7031 0
-7032 9590 0
-7032 820 0
-9590 -820 7032 0
-7033 9590 0
-7033 830 0
-9590 -830 7033 0
-7034 9590 0
-7034 839 0
-9590 -839 7034 0
-7035 9590 0
-7035 847 0
-9590 -847 7035 0
-7036 9590 0
-7036 855 0
-9590 -855 7036 0
-7037 9590 0
-7037 856 0
-9590 -856 7037 0
-7038 9590 0
-7038 857 0
-9590 -857 7038 0
-7039 9590 0
-7039 858 0
-9590 -858 7039 0
-7040 9590 0
-7040 859 0
-9590 -859 7040 0
-7041 9590 0
-7041 860 0
-9590 -860 7041 0
-7042 9590 0
-7042 861 0
-9590 -861 7042 0
-7043 9591 0
-7043 686 0
-9591 -686 7043 0
-7044 9591 0
-7044 705 0
-9591 -705 7044 0
-7045 9591 0
-7045 723 0
-9591 -723 7045 0
-7046 9591 0
-7046 740 0
-9591 -740 7046 0
-7047 9591 0
-7047 756 0
-9591 -756 7047 0
-7048 9591 0
-7048 771 0
-9591 -771 7048 0
-7049 9591 0
-7049 785 0
-9591 -785 7049 0
-7050 9591 0
-7050 798 0
-9591 -798 7050 0
-7051 9591 0
-7051 810 0
-9591 -810 7051 0
-7052 9591 0
-7052 821 0
-9591 -821 7052 0
-7053 9591 0
-7053 831 0
-9591 -831 7053 0
-7054 9591 0
-7054 840 0
-9591 -840 7054 0
-7055 9591 0
-7055 848 0
-9591 -848 7055 0
-7056 9591 0
-7056 855 0
-9591 -855 7056 0
-7057 9591 0
-7057 862 0
-9591 -862 7057 0
-7058 9591 0
-7058 863 0
-9591 -863 7058 0
-7059 9591 0
-7059 864 0
-9591 -864 7059 0
-7060 9591 0
-7060 865 0
-9591 -865 7060 0
-7061 9591 0
-7061 866 0
-9591 -866 7061 0
-7062 9591 0
-7062 867 0
-9591 -867 7062 0
-7063 9592 0
-7063 687 0
-9592 -687 7063 0
-7064 9592 0
-7064 706 0
-9592 -706 7064 0
-7065 9592 0
-7065 724 0
-9592 -724 7065 0
-7066 9592 0
-7066 741 0
-9592 -741 7066 0
-7067 9592 0
-7067 757 0
-9592 -757 7067 0
-7068 9592 0
-7068 772 0
-9592 -772 7068 0
-7069 9592 0
-7069 786 0
-9592 -786 7069 0
-7070 9592 0
-7070 799 0
-9592 -799 7070 0
-7071 9592 0
-7071 811 0
-9592 -811 7071 0
-7072 9592 0
-7072 822 0
-9592 -822 7072 0
-7073 9592 0
-7073 832 0
-9592 -832 7073 0
-7074 9592 0
-7074 841 0
-9592 -841 7074 0
-7075 9592 0
-7075 849 0
-9592 -849 7075 0
-7076 9592 0
-7076 856 0
-9592 -856 7076 0
-7077 9592 0
-7077 862 0
-9592 -862 7077 0
-7078 9592 0
-7078 868 0
-9592 -868 7078 0
-7079 9592 0
-7079 869 0
-9592 -869 7079 0
-7080 9592 0
-7080 870 0
-9592 -870 7080 0
-7081 9592 0
-7081 871 0
-9592 -871 7081 0
-7082 9592 0
-7082 872 0
-9592 -872 7082 0
-7083 9593 0
-7083 688 0
-9593 -688 7083 0
-7084 9593 0
-7084 707 0
-9593 -707 7084 0
-7085 9593 0
-7085 725 0
-9593 -725 7085 0
-7086 9593 0
-7086 742 0
-9593 -742 7086 0
-7087 9593 0
-7087 758 0
-9593 -758 7087 0
-7088 9593 0
-7088 773 0
-9593 -773 7088 0
-7089 9593 0
-7089 787 0
-9593 -787 7089 0
-7090 9593 0
-7090 800 0
-9593 -800 7090 0
-7091 9593 0
-7091 812 0
-9593 -812 7091 0
-7092 9593 0
-7092 823 0
-9593 -823 7092 0
-7093 9593 0
-7093 833 0
-9593 -833 7093 0
-7094 9593 0
-7094 842 0
-9593 -842 7094 0
-7095 9593 0
-7095 850 0
-9593 -850 7095 0
-7096 9593 0
-7096 857 0
-9593 -857 7096 0
-7097 9593 0
-7097 863 0
-9593 -863 7097 0
-7098 9593 0
-7098 868 0
-9593 -868 7098 0
-7099 9593 0
-7099 873 0
-9593 -873 7099 0
-7100 9593 0
-7100 874 0
-9593 -874 7100 0
-7101 9593 0
-7101 875 0
-9593 -875 7101 0
-7102 9593 0
-7102 876 0
-9593 -876 7102 0
-7103 9594 0
-7103 689 0
-9594 -689 7103 0
-7104 9594 0
-7104 708 0
-9594 -708 7104 0
-7105 9594 0
-7105 726 0
-9594 -726 7105 0
-7106 9594 0
-7106 743 0
-9594 -743 7106 0
-7107 9594 0
-7107 759 0
-9594 -759 7107 0
-7108 9594 0
-7108 774 0
-9594 -774 7108 0
-7109 9594 0
-7109 788 0
-9594 -788 7109 0
-7110 9594 0
-7110 801 0
-9594 -801 7110 0
-7111 9594 0
-7111 813 0
-9594 -813 7111 0
-7112 9594 0
-7112 824 0
-9594 -824 7112 0
-7113 9594 0
-7113 834 0
-9594 -834 7113 0
-7114 9594 0
-7114 843 0
-9594 -843 7114 0
-7115 9594 0
-7115 851 0
-9594 -851 7115 0
-7116 9594 0
-7116 858 0
-9594 -858 7116 0
-7117 9594 0
-7117 864 0
-9594 -864 7117 0
-7118 9594 0
-7118 869 0
-9594 -869 7118 0
-7119 9594 0
-7119 873 0
-9594 -873 7119 0
-7120 9594 0
-7120 877 0
-9594 -877 7120 0
-7121 9594 0
-7121 878 0
-9594 -878 7121 0
-7122 9594 0
-7122 879 0
-9594 -879 7122 0
-7123 9595 0
-7123 690 0
-9595 -690 7123 0
-7124 9595 0
-7124 709 0
-9595 -709 7124 0
-7125 9595 0
-7125 727 0
-9595 -727 7125 0
-7126 9595 0
-7126 744 0
-9595 -744 7126 0
-7127 9595 0
-7127 760 0
-9595 -760 7127 0
-7128 9595 0
-7128 775 0
-9595 -775 7128 0
-7129 9595 0
-7129 789 0
-9595 -789 7129 0
-7130 9595 0
-7130 802 0
-9595 -802 7130 0
-7131 9595 0
-7131 814 0
-9595 -814 7131 0
-7132 9595 0
-7132 825 0
-9595 -825 7132 0
-7133 9595 0
-7133 835 0
-9595 -835 7133 0
-7134 9595 0
-7134 844 0
-9595 -844 7134 0
-7135 9595 0
-7135 852 0
-9595 -852 7135 0
-7136 9595 0
-7136 859 0
-9595 -859 7136 0
-7137 9595 0
-7137 865 0
-9595 -865 7137 0
-7138 9595 0
-7138 870 0
-9595 -870 7138 0
-7139 9595 0
-7139 874 0
-9595 -874 7139 0
-7140 9595 0
-7140 877 0
-9595 -877 7140 0
-7141 9595 0
-7141 880 0
-9595 -880 7141 0
-7142 9595 0
-7142 881 0
-9595 -881 7142 0
-7143 9596 0
-7143 691 0
-9596 -691 7143 0
-7144 9596 0
-7144 710 0
-9596 -710 7144 0
-7145 9596 0
-7145 728 0
-9596 -728 7145 0
-7146 9596 0
-7146 745 0
-9596 -745 7146 0
-7147 9596 0
-7147 761 0
-9596 -761 7147 0
-7148 9596 0
-7148 776 0
-9596 -776 7148 0
-7149 9596 0
-7149 790 0
-9596 -790 7149 0
-7150 9596 0
-7150 803 0
-9596 -803 7150 0
-7151 9596 0
-7151 815 0
-9596 -815 7151 0
-7152 9596 0
-7152 826 0
-9596 -826 7152 0
-7153 9596 0
-7153 836 0
-9596 -836 7153 0
-7154 9596 0
-7154 845 0
-9596 -845 7154 0
-7155 9596 0
-7155 853 0
-9596 -853 7155 0
-7156 9596 0
-7156 860 0
-9596 -860 7156 0
-7157 9596 0
-7157 866 0
-9596 -866 7157 0
-7158 9596 0
-7158 871 0
-9596 -871 7158 0
-7159 9596 0
-7159 875 0
-9596 -875 7159 0
-7160 9596 0
-7160 878 0
-9596 -878 7160 0
-7161 9596 0
-7161 880 0
-9596 -880 7161 0
-7162 9596 0
-7162 882 0
-9596 -882 7162 0
-7163 9597 0
-7163 692 0
-9597 -692 7163 0
-7164 9597 0
-7164 711 0
-9597 -711 7164 0
-7165 9597 0
-7165 729 0
-9597 -729 7165 0
-7166 9597 0
-7166 746 0
-9597 -746 7166 0
-7167 9597 0
-7167 762 0
-9597 -762 7167 0
-7168 9597 0
-7168 777 0
-9597 -777 7168 0
-7169 9597 0
-7169 791 0
-9597 -791 7169 0
-7170 9597 0
-7170 804 0
-9597 -804 7170 0
-7171 9597 0
-7171 816 0
-9597 -816 7171 0
-7172 9597 0
-7172 827 0
-9597 -827 7172 0
-7173 9597 0
-7173 837 0
-9597 -837 7173 0
-7174 9597 0
-7174 846 0
-9597 -846 7174 0
-7175 9597 0
-7175 854 0
-9597 -854 7175 0
-7176 9597 0
-7176 861 0
-9597 -861 7176 0
-7177 9597 0
-7177 867 0
-9597 -867 7177 0
-7178 9597 0
-7178 872 0
-9597 -872 7178 0
-7179 9597 0
-7179 876 0
-9597 -876 7179 0
-7180 9597 0
-7180 879 0
-9597 -879 7180 0
-7181 9597 0
-7181 881 0
-9597 -881 7181 0
-7182 9597 0
-7182 882 0
-9597 -882 7182 0
-7183 9598 0
-7183 673 0
-9598 -673 7183 0
-7184 9598 0
-7184 674 0
-9598 -674 7184 0
-7185 9598 0
-7185 675 0
-9598 -675 7185 0
-7186 9598 0
-7186 676 0
-9598 -676 7186 0
-7187 9598 0
-7187 677 0
-9598 -677 7187 0
-7188 9598 0
-7188 678 0
-9598 -678 7188 0
-7189 9598 0
-7189 679 0
-9598 -679 7189 0
-7190 9598 0
-7190 680 0
-9598 -680 7190 0
-7191 9598 0
-7191 681 0
-9598 -681 7191 0
-7192 9598 0
-7192 682 0
-9598 -682 7192 0
-7193 9598 0
-7193 683 0
-9598 -683 7193 0
-7194 9598 0
-7194 684 0
-9598 -684 7194 0
-7195 9598 0
-7195 685 0
-9598 -685 7195 0
-7196 9598 0
-7196 686 0
-9598 -686 7196 0
-7197 9598 0
-7197 687 0
-9598 -687 7197 0
-7198 9598 0
-7198 688 0
-9598 -688 7198 0
-7199 9598 0
-7199 689 0
-9598 -689 7199 0
-7200 9598 0
-7200 690 0
-9598 -690 7200 0
-7201 9598 0
-7201 691 0
-9598 -691 7201 0
-7202 9598 0
-7202 692 0
-9598 -692 7202 0
-7203 9599 0
-7203 673 0
-9599 -673 7203 0
-7204 9599 0
-7204 693 0
-9599 -693 7204 0
-7205 9599 0
-7205 694 0
-9599 -694 7205 0
-7206 9599 0
-7206 695 0
-9599 -695 7206 0
-7207 9599 0
-7207 696 0
-9599 -696 7207 0
-7208 9599 0
-7208 697 0
-9599 -697 7208 0
-7209 9599 0
-7209 698 0
-9599 -698 7209 0
-7210 9599 0
-7210 699 0
-9599 -699 7210 0
-7211 9599 0
-7211 700 0
-9599 -700 7211 0
-7212 9599 0
-7212 701 0
-9599 -701 7212 0
-7213 9599 0
-7213 702 0
-9599 -702 7213 0
-7214 9599 0
-7214 703 0
-9599 -703 7214 0
-7215 9599 0
-7215 704 0
-9599 -704 7215 0
-7216 9599 0
-7216 705 0
-9599 -705 7216 0
-7217 9599 0
-7217 706 0
-9599 -706 7217 0
-7218 9599 0
-7218 707 0
-9599 -707 7218 0
-7219 9599 0
-7219 708 0
-9599 -708 7219 0
-7220 9599 0
-7220 709 0
-9599 -709 7220 0
-7221 9599 0
-7221 710 0
-9599 -710 7221 0
-7222 9599 0
-7222 711 0
-9599 -711 7222 0
-7223 9600 0
-7223 674 0
-9600 -674 7223 0
-7224 9600 0
-7224 693 0
-9600 -693 7224 0
-7225 9600 0
-7225 712 0
-9600 -712 7225 0
-7226 9600 0
-7226 713 0
-9600 -713 7226 0
-7227 9600 0
-7227 714 0
-9600 -714 7227 0
-7228 9600 0
-7228 715 0
-9600 -715 7228 0
-7229 9600 0
-7229 716 0
-9600 -716 7229 0
-7230 9600 0
-7230 717 0
-9600 -717 7230 0
-7231 9600 0
-7231 718 0
-9600 -718 7231 0
-7232 9600 0
-7232 719 0
-9600 -719 7232 0
-7233 9600 0
-7233 720 0
-9600 -720 7233 0
-7234 9600 0
-7234 721 0
-9600 -721 7234 0
-7235 9600 0
-7235 722 0
-9600 -722 7235 0
-7236 9600 0
-7236 723 0
-9600 -723 7236 0
-7237 9600 0
-7237 724 0
-9600 -724 7237 0
-7238 9600 0
-7238 725 0
-9600 -725 7238 0
-7239 9600 0
-7239 726 0
-9600 -726 7239 0
-7240 9600 0
-7240 727 0
-9600 -727 7240 0
-7241 9600 0
-7241 728 0
-9600 -728 7241 0
-7242 9600 0
-7242 729 0
-9600 -729 7242 0
-7243 9601 0
-7243 675 0
-9601 -675 7243 0
-7244 9601 0
-7244 694 0
-9601 -694 7244 0
-7245 9601 0
-7245 712 0
-9601 -712 7245 0
-7246 9601 0
-7246 730 0
-9601 -730 7246 0
-7247 9601 0
-7247 731 0
-9601 -731 7247 0
-7248 9601 0
-7248 732 0
-9601 -732 7248 0
-7249 9601 0
-7249 733 0
-9601 -733 7249 0
-7250 9601 0
-7250 734 0
-9601 -734 7250 0
-7251 9601 0
-7251 735 0
-9601 -735 7251 0
-7252 9601 0
-7252 736 0
-9601 -736 7252 0
-7253 9601 0
-7253 737 0
-9601 -737 7253 0
-7254 9601 0
-7254 738 0
-9601 -738 7254 0
-7255 9601 0
-7255 739 0
-9601 -739 7255 0
-7256 9601 0
-7256 740 0
-9601 -740 7256 0
-7257 9601 0
-7257 741 0
-9601 -741 7257 0
-7258 9601 0
-7258 742 0
-9601 -742 7258 0
-7259 9601 0
-7259 743 0
-9601 -743 7259 0
-7260 9601 0
-7260 744 0
-9601 -744 7260 0
-7261 9601 0
-7261 745 0
-9601 -745 7261 0
-7262 9601 0
-7262 746 0
-9601 -746 7262 0
-7263 9602 0
-7263 676 0
-9602 -676 7263 0
-7264 9602 0
-7264 695 0
-9602 -695 7264 0
-7265 9602 0
-7265 713 0
-9602 -713 7265 0
-7266 9602 0
-7266 730 0
-9602 -730 7266 0
-7267 9602 0
-7267 747 0
-9602 -747 7267 0
-7268 9602 0
-7268 748 0
-9602 -748 7268 0
-7269 9602 0
-7269 749 0
-9602 -749 7269 0
-7270 9602 0
-7270 750 0
-9602 -750 7270 0
-7271 9602 0
-7271 751 0
-9602 -751 7271 0
-7272 9602 0
-7272 752 0
-9602 -752 7272 0
-7273 9602 0
-7273 753 0
-9602 -753 7273 0
-7274 9602 0
-7274 754 0
-9602 -754 7274 0
-7275 9602 0
-7275 755 0
-9602 -755 7275 0
-7276 9602 0
-7276 756 0
-9602 -756 7276 0
-7277 9602 0
-7277 757 0
-9602 -757 7277 0
-7278 9602 0
-7278 758 0
-9602 -758 7278 0
-7279 9602 0
-7279 759 0
-9602 -759 7279 0
-7280 9602 0
-7280 760 0
-9602 -760 7280 0
-7281 9602 0
-7281 761 0
-9602 -761 7281 0
-7282 9602 0
-7282 762 0
-9602 -762 7282 0
-7283 9603 0
-7283 677 0
-9603 -677 7283 0
-7284 9603 0
-7284 696 0
-9603 -696 7284 0
-7285 9603 0
-7285 714 0
-9603 -714 7285 0
-7286 9603 0
-7286 731 0
-9603 -731 7286 0
-7287 9603 0
-7287 747 0
-9603 -747 7287 0
-7288 9603 0
-7288 763 0
-9603 -763 7288 0
-7289 9603 0
-7289 764 0
-9603 -764 7289 0
-7290 9603 0
-7290 765 0
-9603 -765 7290 0
-7291 9603 0
-7291 766 0
-9603 -766 7291 0
-7292 9603 0
-7292 767 0
-9603 -767 7292 0
-7293 9603 0
-7293 768 0
-9603 -768 7293 0
-7294 9603 0
-7294 769 0
-9603 -769 7294 0
-7295 9603 0
-7295 770 0
-9603 -770 7295 0
-7296 9603 0
-7296 771 0
-9603 -771 7296 0
-7297 9603 0
-7297 772 0
-9603 -772 7297 0
-7298 9603 0
-7298 773 0
-9603 -773 7298 0
-7299 9603 0
-7299 774 0
-9603 -774 7299 0
-7300 9603 0
-7300 775 0
-9603 -775 7300 0
-7301 9603 0
-7301 776 0
-9603 -776 7301 0
-7302 9603 0
-7302 777 0
-9603 -777 7302 0
-7303 9604 0
-7303 678 0
-9604 -678 7303 0
-7304 9604 0
-7304 697 0
-9604 -697 7304 0
-7305 9604 0
-7305 715 0
-9604 -715 7305 0
-7306 9604 0
-7306 732 0
-9604 -732 7306 0
-7307 9604 0
-7307 748 0
-9604 -748 7307 0
-7308 9604 0
-7308 763 0
-9604 -763 7308 0
-7309 9604 0
-7309 778 0
-9604 -778 7309 0
-7310 9604 0
-7310 779 0
-9604 -779 7310 0
-7311 9604 0
-7311 780 0
-9604 -780 7311 0
-7312 9604 0
-7312 781 0
-9604 -781 7312 0
-7313 9604 0
-7313 782 0
-9604 -782 7313 0
-7314 9604 0
-7314 783 0
-9604 -783 7314 0
-7315 9604 0
-7315 784 0
-9604 -784 7315 0
-7316 9604 0
-7316 785 0
-9604 -785 7316 0
-7317 9604 0
-7317 786 0
-9604 -786 7317 0
-7318 9604 0
-7318 787 0
-9604 -787 7318 0
-7319 9604 0
-7319 788 0
-9604 -788 7319 0
-7320 9604 0
-7320 789 0
-9604 -789 7320 0
-7321 9604 0
-7321 790 0
-9604 -790 7321 0
-7322 9604 0
-7322 791 0
-9604 -791 7322 0
-7323 9605 0
-7323 679 0
-9605 -679 7323 0
-7324 9605 0
-7324 698 0
-9605 -698 7324 0
-7325 9605 0
-7325 716 0
-9605 -716 7325 0
-7326 9605 0
-7326 733 0
-9605 -733 7326 0
-7327 9605 0
-7327 749 0
-9605 -749 7327 0
-7328 9605 0
-7328 764 0
-9605 -764 7328 0
-7329 9605 0
-7329 778 0
-9605 -778 7329 0
-7330 9605 0
-7330 792 0
-9605 -792 7330 0
-7331 9605 0
-7331 793 0
-9605 -793 7331 0
-7332 9605 0
-7332 794 0
-9605 -794 7332 0
-7333 9605 0
-7333 795 0
-9605 -795 7333 0
-7334 9605 0
-7334 796 0
-9605 -796 7334 0
-7335 9605 0
-7335 797 0
-9605 -797 7335 0
-7336 9605 0
-7336 798 0
-9605 -798 7336 0
-7337 9605 0
-7337 799 0
-9605 -799 7337 0
-7338 9605 0
-7338 800 0
-9605 -800 7338 0
-7339 9605 0
-7339 801 0
-9605 -801 7339 0
-7340 9605 0
-7340 802 0
-9605 -802 7340 0
-7341 9605 0
-7341 803 0
-9605 -803 7341 0
-7342 9605 0
-7342 804 0
-9605 -804 7342 0
-7343 9606 0
-7343 680 0
-9606 -680 7343 0
-7344 9606 0
-7344 699 0
-9606 -699 7344 0
-7345 9606 0
-7345 717 0
-9606 -717 7345 0
-7346 9606 0
-7346 734 0
-9606 -734 7346 0
-7347 9606 0
-7347 750 0
-9606 -750 7347 0
-7348 9606 0
-7348 765 0
-9606 -765 7348 0
-7349 9606 0
-7349 779 0
-9606 -779 7349 0
-7350 9606 0
-7350 792 0
-9606 -792 7350 0
-7351 9606 0
-7351 805 0
-9606 -805 7351 0
-7352 9606 0
-7352 806 0
-9606 -806 7352 0
-7353 9606 0
-7353 807 0
-9606 -807 7353 0
-7354 9606 0
-7354 808 0
-9606 -808 7354 0
-7355 9606 0
-7355 809 0
-9606 -809 7355 0
-7356 9606 0
-7356 810 0
-9606 -810 7356 0
-7357 9606 0
-7357 811 0
-9606 -811 7357 0
-7358 9606 0
-7358 812 0
-9606 -812 7358 0
-7359 9606 0
-7359 813 0
-9606 -813 7359 0
-7360 9606 0
-7360 814 0
-9606 -814 7360 0
-7361 9606 0
-7361 815 0
-9606 -815 7361 0
-7362 9606 0
-7362 816 0
-9606 -816 7362 0
-7363 9607 0
-7363 681 0
-9607 -681 7363 0
-7364 9607 0
-7364 700 0
-9607 -700 7364 0
-7365 9607 0
-7365 718 0
-9607 -718 7365 0
-7366 9607 0
-7366 735 0
-9607 -735 7366 0
-7367 9607 0
-7367 751 0
-9607 -751 7367 0
-7368 9607 0
-7368 766 0
-9607 -766 7368 0
-7369 9607 0
-7369 780 0
-9607 -780 7369 0
-7370 9607 0
-7370 793 0
-9607 -793 7370 0
-7371 9607 0
-7371 805 0
-9607 -805 7371 0
-7372 9607 0
-7372 817 0
-9607 -817 7372 0
-7373 9607 0
-7373 818 0
-9607 -818 7373 0
-7374 9607 0
-7374 819 0
-9607 -819 7374 0
-7375 9607 0
-7375 820 0
-9607 -820 7375 0
-7376 9607 0
-7376 821 0
-9607 -821 7376 0
-7377 9607 0
-7377 822 0
-9607 -822 7377 0
-7378 9607 0
-7378 823 0
-9607 -823 7378 0
-7379 9607 0
-7379 824 0
-9607 -824 7379 0
-7380 9607 0
-7380 825 0
-9607 -825 7380 0
-7381 9607 0
-7381 826 0
-9607 -826 7381 0
-7382 9607 0
-7382 827 0
-9607 -827 7382 0
-7383 9608 0
-7383 682 0
-9608 -682 7383 0
-7384 9608 0
-7384 701 0
-9608 -701 7384 0
-7385 9608 0
-7385 719 0
-9608 -719 7385 0
-7386 9608 0
-7386 736 0
-9608 -736 7386 0
-7387 9608 0
-7387 752 0
-9608 -752 7387 0
-7388 9608 0
-7388 767 0
-9608 -767 7388 0
-7389 9608 0
-7389 781 0
-9608 -781 7389 0
-7390 9608 0
-7390 794 0
-9608 -794 7390 0
-7391 9608 0
-7391 806 0
-9608 -806 7391 0
-7392 9608 0
-7392 817 0
-9608 -817 7392 0
-7393 9608 0
-7393 828 0
-9608 -828 7393 0
-7394 9608 0
-7394 829 0
-9608 -829 7394 0
-7395 9608 0
-7395 830 0
-9608 -830 7395 0
-7396 9608 0
-7396 831 0
-9608 -831 7396 0
-7397 9608 0
-7397 832 0
-9608 -832 7397 0
-7398 9608 0
-7398 833 0
-9608 -833 7398 0
-7399 9608 0
-7399 834 0
-9608 -834 7399 0
-7400 9608 0
-7400 835 0
-9608 -835 7400 0
-7401 9608 0
-7401 836 0
-9608 -836 7401 0
-7402 9608 0
-7402 837 0
-9608 -837 7402 0
-7403 9609 0
-7403 683 0
-9609 -683 7403 0
-7404 9609 0
-7404 702 0
-9609 -702 7404 0
-7405 9609 0
-7405 720 0
-9609 -720 7405 0
-7406 9609 0
-7406 737 0
-9609 -737 7406 0
-7407 9609 0
-7407 753 0
-9609 -753 7407 0
-7408 9609 0
-7408 768 0
-9609 -768 7408 0
-7409 9609 0
-7409 782 0
-9609 -782 7409 0
-7410 9609 0
-7410 795 0
-9609 -795 7410 0
-7411 9609 0
-7411 807 0
-9609 -807 7411 0
-7412 9609 0
-7412 818 0
-9609 -818 7412 0
-7413 9609 0
-7413 828 0
-9609 -828 7413 0
-7414 9609 0
-7414 838 0
-9609 -838 7414 0
-7415 9609 0
-7415 839 0
-9609 -839 7415 0
-7416 9609 0
-7416 840 0
-9609 -840 7416 0
-7417 9609 0
-7417 841 0
-9609 -841 7417 0
-7418 9609 0
-7418 842 0
-9609 -842 7418 0
-7419 9609 0
-7419 843 0
-9609 -843 7419 0
-7420 9609 0
-7420 844 0
-9609 -844 7420 0
-7421 9609 0
-7421 845 0
-9609 -845 7421 0
-7422 9609 0
-7422 846 0
-9609 -846 7422 0
-7423 9610 0
-7423 684 0
-9610 -684 7423 0
-7424 9610 0
-7424 703 0
-9610 -703 7424 0
-7425 9610 0
-7425 721 0
-9610 -721 7425 0
-7426 9610 0
-7426 738 0
-9610 -738 7426 0
-7427 9610 0
-7427 754 0
-9610 -754 7427 0
-7428 9610 0
-7428 769 0
-9610 -769 7428 0
-7429 9610 0
-7429 783 0
-9610 -783 7429 0
-7430 9610 0
-7430 796 0
-9610 -796 7430 0
-7431 9610 0
-7431 808 0
-9610 -808 7431 0
-7432 9610 0
-7432 819 0
-9610 -819 7432 0
-7433 9610 0
-7433 829 0
-9610 -829 7433 0
-7434 9610 0
-7434 838 0
-9610 -838 7434 0
-7435 9610 0
-7435 847 0
-9610 -847 7435 0
-7436 9610 0
-7436 848 0
-9610 -848 7436 0
-7437 9610 0
-7437 849 0
-9610 -849 7437 0
-7438 9610 0
-7438 850 0
-9610 -850 7438 0
-7439 9610 0
-7439 851 0
-9610 -851 7439 0
-7440 9610 0
-7440 852 0
-9610 -852 7440 0
-7441 9610 0
-7441 853 0
-9610 -853 7441 0
-7442 9610 0
-7442 854 0
-9610 -854 7442 0
-7443 9611 0
-7443 685 0
-9611 -685 7443 0
-7444 9611 0
-7444 704 0
-9611 -704 7444 0
-7445 9611 0
-7445 722 0
-9611 -722 7445 0
-7446 9611 0
-7446 739 0
-9611 -739 7446 0
-7447 9611 0
-7447 755 0
-9611 -755 7447 0
-7448 9611 0
-7448 770 0
-9611 -770 7448 0
-7449 9611 0
-7449 784 0
-9611 -784 7449 0
-7450 9611 0
-7450 797 0
-9611 -797 7450 0
-7451 9611 0
-7451 809 0
-9611 -809 7451 0
-7452 9611 0
-7452 820 0
-9611 -820 7452 0
-7453 9611 0
-7453 830 0
-9611 -830 7453 0
-7454 9611 0
-7454 839 0
-9611 -839 7454 0
-7455 9611 0
-7455 847 0
-9611 -847 7455 0
-7456 9611 0
-7456 855 0
-9611 -855 7456 0
-7457 9611 0
-7457 856 0
-9611 -856 7457 0
-7458 9611 0
-7458 857 0
-9611 -857 7458 0
-7459 9611 0
-7459 858 0
-9611 -858 7459 0
-7460 9611 0
-7460 859 0
-9611 -859 7460 0
-7461 9611 0
-7461 860 0
-9611 -860 7461 0
-7462 9611 0
-7462 861 0
-9611 -861 7462 0
-7463 9612 0
-7463 686 0
-9612 -686 7463 0
-7464 9612 0
-7464 705 0
-9612 -705 7464 0
-7465 9612 0
-7465 723 0
-9612 -723 7465 0
-7466 9612 0
-7466 740 0
-9612 -740 7466 0
-7467 9612 0
-7467 756 0
-9612 -756 7467 0
-7468 9612 0
-7468 771 0
-9612 -771 7468 0
-7469 9612 0
-7469 785 0
-9612 -785 7469 0
-7470 9612 0
-7470 798 0
-9612 -798 7470 0
-7471 9612 0
-7471 810 0
-9612 -810 7471 0
-7472 9612 0
-7472 821 0
-9612 -821 7472 0
-7473 9612 0
-7473 831 0
-9612 -831 7473 0
-7474 9612 0
-7474 840 0
-9612 -840 7474 0
-7475 9612 0
-7475 848 0
-9612 -848 7475 0
-7476 9612 0
-7476 855 0
-9612 -855 7476 0
-7477 9612 0
-7477 862 0
-9612 -862 7477 0
-7478 9612 0
-7478 863 0
-9612 -863 7478 0
-7479 9612 0
-7479 864 0
-9612 -864 7479 0
-7480 9612 0
-7480 865 0
-9612 -865 7480 0
-7481 9612 0
-7481 866 0
-9612 -866 7481 0
-7482 9612 0
-7482 867 0
-9612 -867 7482 0
-7483 9613 0
-7483 687 0
-9613 -687 7483 0
-7484 9613 0
-7484 706 0
-9613 -706 7484 0
-7485 9613 0
-7485 724 0
-9613 -724 7485 0
-7486 9613 0
-7486 741 0
-9613 -741 7486 0
-7487 9613 0
-7487 757 0
-9613 -757 7487 0
-7488 9613 0
-7488 772 0
-9613 -772 7488 0
-7489 9613 0
-7489 786 0
-9613 -786 7489 0
-7490 9613 0
-7490 799 0
-9613 -799 7490 0
-7491 9613 0
-7491 811 0
-9613 -811 7491 0
-7492 9613 0
-7492 822 0
-9613 -822 7492 0
-7493 9613 0
-7493 832 0
-9613 -832 7493 0
-7494 9613 0
-7494 841 0
-9613 -841 7494 0
-7495 9613 0
-7495 849 0
-9613 -849 7495 0
-7496 9613 0
-7496 856 0
-9613 -856 7496 0
-7497 9613 0
-7497 862 0
-9613 -862 7497 0
-7498 9613 0
-7498 868 0
-9613 -868 7498 0
-7499 9613 0
-7499 869 0
-9613 -869 7499 0
-7500 9613 0
-7500 870 0
-9613 -870 7500 0
-7501 9613 0
-7501 871 0
-9613 -871 7501 0
-7502 9613 0
-7502 872 0
-9613 -872 7502 0
-7503 9614 0
-7503 688 0
-9614 -688 7503 0
-7504 9614 0
-7504 707 0
-9614 -707 7504 0
-7505 9614 0
-7505 725 0
-9614 -725 7505 0
-7506 9614 0
-7506 742 0
-9614 -742 7506 0
-7507 9614 0
-7507 758 0
-9614 -758 7507 0
-7508 9614 0
-7508 773 0
-9614 -773 7508 0
-7509 9614 0
-7509 787 0
-9614 -787 7509 0
-7510 9614 0
-7510 800 0
-9614 -800 7510 0
-7511 9614 0
-7511 812 0
-9614 -812 7511 0
-7512 9614 0
-7512 823 0
-9614 -823 7512 0
-7513 9614 0
-7513 833 0
-9614 -833 7513 0
-7514 9614 0
-7514 842 0
-9614 -842 7514 0
-7515 9614 0
-7515 850 0
-9614 -850 7515 0
-7516 9614 0
-7516 857 0
-9614 -857 7516 0
-7517 9614 0
-7517 863 0
-9614 -863 7517 0
-7518 9614 0
-7518 868 0
-9614 -868 7518 0
-7519 9614 0
-7519 873 0
-9614 -873 7519 0
-7520 9614 0
-7520 874 0
-9614 -874 7520 0
-7521 9614 0
-7521 875 0
-9614 -875 7521 0
-7522 9614 0
-7522 876 0
-9614 -876 7522 0
-7523 9615 0
-7523 689 0
-9615 -689 7523 0
-7524 9615 0
-7524 708 0
-9615 -708 7524 0
-7525 9615 0
-7525 726 0
-9615 -726 7525 0
-7526 9615 0
-7526 743 0
-9615 -743 7526 0
-7527 9615 0
-7527 759 0
-9615 -759 7527 0
-7528 9615 0
-7528 774 0
-9615 -774 7528 0
-7529 9615 0
-7529 788 0
-9615 -788 7529 0
-7530 9615 0
-7530 801 0
-9615 -801 7530 0
-7531 9615 0
-7531 813 0
-9615 -813 7531 0
-7532 9615 0
-7532 824 0
-9615 -824 7532 0
-7533 9615 0
-7533 834 0
-9615 -834 7533 0
-7534 9615 0
-7534 843 0
-9615 -843 7534 0
-7535 9615 0
-7535 851 0
-9615 -851 7535 0
-7536 9615 0
-7536 858 0
-9615 -858 7536 0
-7537 9615 0
-7537 864 0
-9615 -864 7537 0
-7538 9615 0
-7538 869 0
-9615 -869 7538 0
-7539 9615 0
-7539 873 0
-9615 -873 7539 0
-7540 9615 0
-7540 877 0
-9615 -877 7540 0
-7541 9615 0
-7541 878 0
-9615 -878 7541 0
-7542 9615 0
-7542 879 0
-9615 -879 7542 0
-7543 9616 0
-7543 690 0
-9616 -690 7543 0
-7544 9616 0
-7544 709 0
-9616 -709 7544 0
-7545 9616 0
-7545 727 0
-9616 -727 7545 0
-7546 9616 0
-7546 744 0
-9616 -744 7546 0
-7547 9616 0
-7547 760 0
-9616 -760 7547 0
-7548 9616 0
-7548 775 0
-9616 -775 7548 0
-7549 9616 0
-7549 789 0
-9616 -789 7549 0
-7550 9616 0
-7550 802 0
-9616 -802 7550 0
-7551 9616 0
-7551 814 0
-9616 -814 7551 0
-7552 9616 0
-7552 825 0
-9616 -825 7552 0
-7553 9616 0
-7553 835 0
-9616 -835 7553 0
-7554 9616 0
-7554 844 0
-9616 -844 7554 0
-7555 9616 0
-7555 852 0
-9616 -852 7555 0
-7556 9616 0
-7556 859 0
-9616 -859 7556 0
-7557 9616 0
-7557 865 0
-9616 -865 7557 0
-7558 9616 0
-7558 870 0
-9616 -870 7558 0
-7559 9616 0
-7559 874 0
-9616 -874 7559 0
-7560 9616 0
-7560 877 0
-9616 -877 7560 0
-7561 9616 0
-7561 880 0
-9616 -880 7561 0
-7562 9616 0
-7562 881 0
-9616 -881 7562 0
-7563 9617 0
-7563 691 0
-9617 -691 7563 0
-7564 9617 0
-7564 710 0
-9617 -710 7564 0
-7565 9617 0
-7565 728 0
-9617 -728 7565 0
-7566 9617 0
-7566 745 0
-9617 -745 7566 0
-7567 9617 0
-7567 761 0
-9617 -761 7567 0
-7568 9617 0
-7568 776 0
-9617 -776 7568 0
-7569 9617 0
-7569 790 0
-9617 -790 7569 0
-7570 9617 0
-7570 803 0
-9617 -803 7570 0
-7571 9617 0
-7571 815 0
-9617 -815 7571 0
-7572 9617 0
-7572 826 0
-9617 -826 7572 0
-7573 9617 0
-7573 836 0
-9617 -836 7573 0
-7574 9617 0
-7574 845 0
-9617 -845 7574 0
-7575 9617 0
-7575 853 0
-9617 -853 7575 0
-7576 9617 0
-7576 860 0
-9617 -860 7576 0
-7577 9617 0
-7577 866 0
-9617 -866 7577 0
-7578 9617 0
-7578 871 0
-9617 -871 7578 0
-7579 9617 0
-7579 875 0
-9617 -875 7579 0
-7580 9617 0
-7580 878 0
-9617 -878 7580 0
-7581 9617 0
-7581 880 0
-9617 -880 7581 0
-7582 9617 0
-7582 882 0
-9617 -882 7582 0
-7583 9618 0
-7583 692 0
-9618 -692 7583 0
-7584 9618 0
-7584 711 0
-9618 -711 7584 0
-7585 9618 0
-7585 729 0
-9618 -729 7585 0
-7586 9618 0
-7586 746 0
-9618 -746 7586 0
-7587 9618 0
-7587 762 0
-9618 -762 7587 0
-7588 9618 0
-7588 777 0
-9618 -777 7588 0
-7589 9618 0
-7589 791 0
-9618 -791 7589 0
-7590 9618 0
-7590 804 0
-9618 -804 7590 0
-7591 9618 0
-7591 816 0
-9618 -816 7591 0
-7592 9618 0
-7592 827 0
-9618 -827 7592 0
-7593 9618 0
-7593 837 0
-9618 -837 7593 0
-7594 9618 0
-7594 846 0
-9618 -846 7594 0
-7595 9618 0
-7595 854 0
-9618 -854 7595 0
-7596 9618 0
-7596 861 0
-9618 -861 7596 0
-7597 9618 0
-7597 867 0
-9618 -867 7597 0
-7598 9618 0
-7598 872 0
-9618 -872 7598 0
-7599 9618 0
-7599 876 0
-9618 -876 7599 0
-7600 9618 0
-7600 879 0
-9618 -879 7600 0
-7601 9618 0
-7601 881 0
-9618 -881 7601 0
-7602 9618 0
-7602 882 0
-9618 -882 7602 0
-7603 9619 0
-7603 673 0
-9619 -673 7603 0
-7604 9619 0
-7604 674 0
-9619 -674 7604 0
-7605 9619 0
-7605 675 0
-9619 -675 7605 0
-7606 9619 0
-7606 676 0
-9619 -676 7606 0
-7607 9619 0
-7607 677 0
-9619 -677 7607 0
-7608 9619 0
-7608 678 0
-9619 -678 7608 0
-7609 9619 0
-7609 679 0
-9619 -679 7609 0
-7610 9619 0
-7610 680 0
-9619 -680 7610 0
-7611 9619 0
-7611 681 0
-9619 -681 7611 0
-7612 9619 0
-7612 682 0
-9619 -682 7612 0
-7613 9619 0
-7613 683 0
-9619 -683 7613 0
-7614 9619 0
-7614 684 0
-9619 -684 7614 0
-7615 9619 0
-7615 685 0
-9619 -685 7615 0
-7616 9619 0
-7616 686 0
-9619 -686 7616 0
-7617 9619 0
-7617 687 0
-9619 -687 7617 0
-7618 9619 0
-7618 688 0
-9619 -688 7618 0
-7619 9619 0
-7619 689 0
-9619 -689 7619 0
-7620 9619 0
-7620 690 0
-9619 -690 7620 0
-7621 9619 0
-7621 691 0
-9619 -691 7621 0
-7622 9619 0
-7622 692 0
-9619 -692 7622 0
-7623 9620 0
-7623 673 0
-9620 -673 7623 0
-7624 9620 0
-7624 693 0
-9620 -693 7624 0
-7625 9620 0
-7625 694 0
-9620 -694 7625 0
-7626 9620 0
-7626 695 0
-9620 -695 7626 0
-7627 9620 0
-7627 696 0
-9620 -696 7627 0
-7628 9620 0
-7628 697 0
-9620 -697 7628 0
-7629 9620 0
-7629 698 0
-9620 -698 7629 0
-7630 9620 0
-7630 699 0
-9620 -699 7630 0
-7631 9620 0
-7631 700 0
-9620 -700 7631 0
-7632 9620 0
-7632 701 0
-9620 -701 7632 0
-7633 9620 0
-7633 702 0
-9620 -702 7633 0
-7634 9620 0
-7634 703 0
-9620 -703 7634 0
-7635 9620 0
-7635 704 0
-9620 -704 7635 0
-7636 9620 0
-7636 705 0
-9620 -705 7636 0
-7637 9620 0
-7637 706 0
-9620 -706 7637 0
-7638 9620 0
-7638 707 0
-9620 -707 7638 0
-7639 9620 0
-7639 708 0
-9620 -708 7639 0
-7640 9620 0
-7640 709 0
-9620 -709 7640 0
-7641 9620 0
-7641 710 0
-9620 -710 7641 0
-7642 9620 0
-7642 711 0
-9620 -711 7642 0
-7643 9621 0
-7643 674 0
-9621 -674 7643 0
-7644 9621 0
-7644 693 0
-9621 -693 7644 0
-7645 9621 0
-7645 712 0
-9621 -712 7645 0
-7646 9621 0
-7646 713 0
-9621 -713 7646 0
-7647 9621 0
-7647 714 0
-9621 -714 7647 0
-7648 9621 0
-7648 715 0
-9621 -715 7648 0
-7649 9621 0
-7649 716 0
-9621 -716 7649 0
-7650 9621 0
-7650 717 0
-9621 -717 7650 0
-7651 9621 0
-7651 718 0
-9621 -718 7651 0
-7652 9621 0
-7652 719 0
-9621 -719 7652 0
-7653 9621 0
-7653 720 0
-9621 -720 7653 0
-7654 9621 0
-7654 721 0
-9621 -721 7654 0
-7655 9621 0
-7655 722 0
-9621 -722 7655 0
-7656 9621 0
-7656 723 0
-9621 -723 7656 0
-7657 9621 0
-7657 724 0
-9621 -724 7657 0
-7658 9621 0
-7658 725 0
-9621 -725 7658 0
-7659 9621 0
-7659 726 0
-9621 -726 7659 0
-7660 9621 0
-7660 727 0
-9621 -727 7660 0
-7661 9621 0
-7661 728 0
-9621 -728 7661 0
-7662 9621 0
-7662 729 0
-9621 -729 7662 0
-7663 9622 0
-7663 675 0
-9622 -675 7663 0
-7664 9622 0
-7664 694 0
-9622 -694 7664 0
-7665 9622 0
-7665 712 0
-9622 -712 7665 0
-7666 9622 0
-7666 730 0
-9622 -730 7666 0
-7667 9622 0
-7667 731 0
-9622 -731 7667 0
-7668 9622 0
-7668 732 0
-9622 -732 7668 0
-7669 9622 0
-7669 733 0
-9622 -733 7669 0
-7670 9622 0
-7670 734 0
-9622 -734 7670 0
-7671 9622 0
-7671 735 0
-9622 -735 7671 0
-7672 9622 0
-7672 736 0
-9622 -736 7672 0
-7673 9622 0
-7673 737 0
-9622 -737 7673 0
-7674 9622 0
-7674 738 0
-9622 -738 7674 0
-7675 9622 0
-7675 739 0
-9622 -739 7675 0
-7676 9622 0
-7676 740 0
-9622 -740 7676 0
-7677 9622 0
-7677 741 0
-9622 -741 7677 0
-7678 9622 0
-7678 742 0
-9622 -742 7678 0
-7679 9622 0
-7679 743 0
-9622 -743 7679 0
-7680 9622 0
-7680 744 0
-9622 -744 7680 0
-7681 9622 0
-7681 745 0
-9622 -745 7681 0
-7682 9622 0
-7682 746 0
-9622 -746 7682 0
-7683 9623 0
-7683 676 0
-9623 -676 7683 0
-7684 9623 0
-7684 695 0
-9623 -695 7684 0
-7685 9623 0
-7685 713 0
-9623 -713 7685 0
-7686 9623 0
-7686 730 0
-9623 -730 7686 0
-7687 9623 0
-7687 747 0
-9623 -747 7687 0
-7688 9623 0
-7688 748 0
-9623 -748 7688 0
-7689 9623 0
-7689 749 0
-9623 -749 7689 0
-7690 9623 0
-7690 750 0
-9623 -750 7690 0
-7691 9623 0
-7691 751 0
-9623 -751 7691 0
-7692 9623 0
-7692 752 0
-9623 -752 7692 0
-7693 9623 0
-7693 753 0
-9623 -753 7693 0
-7694 9623 0
-7694 754 0
-9623 -754 7694 0
-7695 9623 0
-7695 755 0
-9623 -755 7695 0
-7696 9623 0
-7696 756 0
-9623 -756 7696 0
-7697 9623 0
-7697 757 0
-9623 -757 7697 0
-7698 9623 0
-7698 758 0
-9623 -758 7698 0
-7699 9623 0
-7699 759 0
-9623 -759 7699 0
-7700 9623 0
-7700 760 0
-9623 -760 7700 0
-7701 9623 0
-7701 761 0
-9623 -761 7701 0
-7702 9623 0
-7702 762 0
-9623 -762 7702 0
-7703 9624 0
-7703 677 0
-9624 -677 7703 0
-7704 9624 0
-7704 696 0
-9624 -696 7704 0
-7705 9624 0
-7705 714 0
-9624 -714 7705 0
-7706 9624 0
-7706 731 0
-9624 -731 7706 0
-7707 9624 0
-7707 747 0
-9624 -747 7707 0
-7708 9624 0
-7708 763 0
-9624 -763 7708 0
-7709 9624 0
-7709 764 0
-9624 -764 7709 0
-7710 9624 0
-7710 765 0
-9624 -765 7710 0
-7711 9624 0
-7711 766 0
-9624 -766 7711 0
-7712 9624 0
-7712 767 0
-9624 -767 7712 0
-7713 9624 0
-7713 768 0
-9624 -768 7713 0
-7714 9624 0
-7714 769 0
-9624 -769 7714 0
-7715 9624 0
-7715 770 0
-9624 -770 7715 0
-7716 9624 0
-7716 771 0
-9624 -771 7716 0
-7717 9624 0
-7717 772 0
-9624 -772 7717 0
-7718 9624 0
-7718 773 0
-9624 -773 7718 0
-7719 9624 0
-7719 774 0
-9624 -774 7719 0
-7720 9624 0
-7720 775 0
-9624 -775 7720 0
-7721 9624 0
-7721 776 0
-9624 -776 7721 0
-7722 9624 0
-7722 777 0
-9624 -777 7722 0
-7723 9625 0
-7723 678 0
-9625 -678 7723 0
-7724 9625 0
-7724 697 0
-9625 -697 7724 0
-7725 9625 0
-7725 715 0
-9625 -715 7725 0
-7726 9625 0
-7726 732 0
-9625 -732 7726 0
-7727 9625 0
-7727 748 0
-9625 -748 7727 0
-7728 9625 0
-7728 763 0
-9625 -763 7728 0
-7729 9625 0
-7729 778 0
-9625 -778 7729 0
-7730 9625 0
-7730 779 0
-9625 -779 7730 0
-7731 9625 0
-7731 780 0
-9625 -780 7731 0
-7732 9625 0
-7732 781 0
-9625 -781 7732 0
-7733 9625 0
-7733 782 0
-9625 -782 7733 0
-7734 9625 0
-7734 783 0
-9625 -783 7734 0
-7735 9625 0
-7735 784 0
-9625 -784 7735 0
-7736 9625 0
-7736 785 0
-9625 -785 7736 0
-7737 9625 0
-7737 786 0
-9625 -786 7737 0
-7738 9625 0
-7738 787 0
-9625 -787 7738 0
-7739 9625 0
-7739 788 0
-9625 -788 7739 0
-7740 9625 0
-7740 789 0
-9625 -789 7740 0
-7741 9625 0
-7741 790 0
-9625 -790 7741 0
-7742 9625 0
-7742 791 0
-9625 -791 7742 0
-7743 9626 0
-7743 679 0
-9626 -679 7743 0
-7744 9626 0
-7744 698 0
-9626 -698 7744 0
-7745 9626 0
-7745 716 0
-9626 -716 7745 0
-7746 9626 0
-7746 733 0
-9626 -733 7746 0
-7747 9626 0
-7747 749 0
-9626 -749 7747 0
-7748 9626 0
-7748 764 0
-9626 -764 7748 0
-7749 9626 0
-7749 778 0
-9626 -778 7749 0
-7750 9626 0
-7750 792 0
-9626 -792 7750 0
-7751 9626 0
-7751 793 0
-9626 -793 7751 0
-7752 9626 0
-7752 794 0
-9626 -794 7752 0
-7753 9626 0
-7753 795 0
-9626 -795 7753 0
-7754 9626 0
-7754 796 0
-9626 -796 7754 0
-7755 9626 0
-7755 797 0
-9626 -797 7755 0
-7756 9626 0
-7756 798 0
-9626 -798 7756 0
-7757 9626 0
-7757 799 0
-9626 -799 7757 0
-7758 9626 0
-7758 800 0
-9626 -800 7758 0
-7759 9626 0
-7759 801 0
-9626 -801 7759 0
-7760 9626 0
-7760 802 0
-9626 -802 7760 0
-7761 9626 0
-7761 803 0
-9626 -803 7761 0
-7762 9626 0
-7762 804 0
-9626 -804 7762 0
-7763 9627 0
-7763 680 0
-9627 -680 7763 0
-7764 9627 0
-7764 699 0
-9627 -699 7764 0
-7765 9627 0
-7765 717 0
-9627 -717 7765 0
-7766 9627 0
-7766 734 0
-9627 -734 7766 0
-7767 9627 0
-7767 750 0
-9627 -750 7767 0
-7768 9627 0
-7768 765 0
-9627 -765 7768 0
-7769 9627 0
-7769 779 0
-9627 -779 7769 0
-7770 9627 0
-7770 792 0
-9627 -792 7770 0
-7771 9627 0
-7771 805 0
-9627 -805 7771 0
-7772 9627 0
-7772 806 0
-9627 -806 7772 0
-7773 9627 0
-7773 807 0
-9627 -807 7773 0
-7774 9627 0
-7774 808 0
-9627 -808 7774 0
-7775 9627 0
-7775 809 0
-9627 -809 7775 0
-7776 9627 0
-7776 810 0
-9627 -810 7776 0
-7777 9627 0
-7777 811 0
-9627 -811 7777 0
-7778 9627 0
-7778 812 0
-9627 -812 7778 0
-7779 9627 0
-7779 813 0
-9627 -813 7779 0
-7780 9627 0
-7780 814 0
-9627 -814 7780 0
-7781 9627 0
-7781 815 0
-9627 -815 7781 0
-7782 9627 0
-7782 816 0
-9627 -816 7782 0
-7783 9628 0
-7783 681 0
-9628 -681 7783 0
-7784 9628 0
-7784 700 0
-9628 -700 7784 0
-7785 9628 0
-7785 718 0
-9628 -718 7785 0
-7786 9628 0
-7786 735 0
-9628 -735 7786 0
-7787 9628 0
-7787 751 0
-9628 -751 7787 0
-7788 9628 0
-7788 766 0
-9628 -766 7788 0
-7789 9628 0
-7789 780 0
-9628 -780 7789 0
-7790 9628 0
-7790 793 0
-9628 -793 7790 0
-7791 9628 0
-7791 805 0
-9628 -805 7791 0
-7792 9628 0
-7792 817 0
-9628 -817 7792 0
-7793 9628 0
-7793 818 0
-9628 -818 7793 0
-7794 9628 0
-7794 819 0
-9628 -819 7794 0
-7795 9628 0
-7795 820 0
-9628 -820 7795 0
-7796 9628 0
-7796 821 0
-9628 -821 7796 0
-7797 9628 0
-7797 822 0
-9628 -822 7797 0
-7798 9628 0
-7798 823 0
-9628 -823 7798 0
-7799 9628 0
-7799 824 0
-9628 -824 7799 0
-7800 9628 0
-7800 825 0
-9628 -825 7800 0
-7801 9628 0
-7801 826 0
-9628 -826 7801 0
-7802 9628 0
-7802 827 0
-9628 -827 7802 0
-7803 9629 0
-7803 682 0
-9629 -682 7803 0
-7804 9629 0
-7804 701 0
-9629 -701 7804 0
-7805 9629 0
-7805 719 0
-9629 -719 7805 0
-7806 9629 0
-7806 736 0
-9629 -736 7806 0
-7807 9629 0
-7807 752 0
-9629 -752 7807 0
-7808 9629 0
-7808 767 0
-9629 -767 7808 0
-7809 9629 0
-7809 781 0
-9629 -781 7809 0
-7810 9629 0
-7810 794 0
-9629 -794 7810 0
-7811 9629 0
-7811 806 0
-9629 -806 7811 0
-7812 9629 0
-7812 817 0
-9629 -817 7812 0
-7813 9629 0
-7813 828 0
-9629 -828 7813 0
-7814 9629 0
-7814 829 0
-9629 -829 7814 0
-7815 9629 0
-7815 830 0
-9629 -830 7815 0
-7816 9629 0
-7816 831 0
-9629 -831 7816 0
-7817 9629 0
-7817 832 0
-9629 -832 7817 0
-7818 9629 0
-7818 833 0
-9629 -833 7818 0
-7819 9629 0
-7819 834 0
-9629 -834 7819 0
-7820 9629 0
-7820 835 0
-9629 -835 7820 0
-7821 9629 0
-7821 836 0
-9629 -836 7821 0
-7822 9629 0
-7822 837 0
-9629 -837 7822 0
-7823 9630 0
-7823 683 0
-9630 -683 7823 0
-7824 9630 0
-7824 702 0
-9630 -702 7824 0
-7825 9630 0
-7825 720 0
-9630 -720 7825 0
-7826 9630 0
-7826 737 0
-9630 -737 7826 0
-7827 9630 0
-7827 753 0
-9630 -753 7827 0
-7828 9630 0
-7828 768 0
-9630 -768 7828 0
-7829 9630 0
-7829 782 0
-9630 -782 7829 0
-7830 9630 0
-7830 795 0
-9630 -795 7830 0
-7831 9630 0
-7831 807 0
-9630 -807 7831 0
-7832 9630 0
-7832 818 0
-9630 -818 7832 0
-7833 9630 0
-7833 828 0
-9630 -828 7833 0
-7834 9630 0
-7834 838 0
-9630 -838 7834 0
-7835 9630 0
-7835 839 0
-9630 -839 7835 0
-7836 9630 0
-7836 840 0
-9630 -840 7836 0
-7837 9630 0
-7837 841 0
-9630 -841 7837 0
-7838 9630 0
-7838 842 0
-9630 -842 7838 0
-7839 9630 0
-7839 843 0
-9630 -843 7839 0
-7840 9630 0
-7840 844 0
-9630 -844 7840 0
-7841 9630 0
-7841 845 0
-9630 -845 7841 0
-7842 9630 0
-7842 846 0
-9630 -846 7842 0
-7843 9631 0
-7843 684 0
-9631 -684 7843 0
-7844 9631 0
-7844 703 0
-9631 -703 7844 0
-7845 9631 0
-7845 721 0
-9631 -721 7845 0
-7846 9631 0
-7846 738 0
-9631 -738 7846 0
-7847 9631 0
-7847 754 0
-9631 -754 7847 0
-7848 9631 0
-7848 769 0
-9631 -769 7848 0
-7849 9631 0
-7849 783 0
-9631 -783 7849 0
-7850 9631 0
-7850 796 0
-9631 -796 7850 0
-7851 9631 0
-7851 808 0
-9631 -808 7851 0
-7852 9631 0
-7852 819 0
-9631 -819 7852 0
-7853 9631 0
-7853 829 0
-9631 -829 7853 0
-7854 9631 0
-7854 838 0
-9631 -838 7854 0
-7855 9631 0
-7855 847 0
-9631 -847 7855 0
-7856 9631 0
-7856 848 0
-9631 -848 7856 0
-7857 9631 0
-7857 849 0
-9631 -849 7857 0
-7858 9631 0
-7858 850 0
-9631 -850 7858 0
-7859 9631 0
-7859 851 0
-9631 -851 7859 0
-7860 9631 0
-7860 852 0
-9631 -852 7860 0
-7861 9631 0
-7861 853 0
-9631 -853 7861 0
-7862 9631 0
-7862 854 0
-9631 -854 7862 0
-7863 9632 0
-7863 685 0
-9632 -685 7863 0
-7864 9632 0
-7864 704 0
-9632 -704 7864 0
-7865 9632 0
-7865 722 0
-9632 -722 7865 0
-7866 9632 0
-7866 739 0
-9632 -739 7866 0
-7867 9632 0
-7867 755 0
-9632 -755 7867 0
-7868 9632 0
-7868 770 0
-9632 -770 7868 0
-7869 9632 0
-7869 784 0
-9632 -784 7869 0
-7870 9632 0
-7870 797 0
-9632 -797 7870 0
-7871 9632 0
-7871 809 0
-9632 -809 7871 0
-7872 9632 0
-7872 820 0
-9632 -820 7872 0
-7873 9632 0
-7873 830 0
-9632 -830 7873 0
-7874 9632 0
-7874 839 0
-9632 -839 7874 0
-7875 9632 0
-7875 847 0
-9632 -847 7875 0
-7876 9632 0
-7876 855 0
-9632 -855 7876 0
-7877 9632 0
-7877 856 0
-9632 -856 7877 0
-7878 9632 0
-7878 857 0
-9632 -857 7878 0
-7879 9632 0
-7879 858 0
-9632 -858 7879 0
-7880 9632 0
-7880 859 0
-9632 -859 7880 0
-7881 9632 0
-7881 860 0
-9632 -860 7881 0
-7882 9632 0
-7882 861 0
-9632 -861 7882 0
-7883 9633 0
-7883 686 0
-9633 -686 7883 0
-7884 9633 0
-7884 705 0
-9633 -705 7884 0
-7885 9633 0
-7885 723 0
-9633 -723 7885 0
-7886 9633 0
-7886 740 0
-9633 -740 7886 0
-7887 9633 0
-7887 756 0
-9633 -756 7887 0
-7888 9633 0
-7888 771 0
-9633 -771 7888 0
-7889 9633 0
-7889 785 0
-9633 -785 7889 0
-7890 9633 0
-7890 798 0
-9633 -798 7890 0
-7891 9633 0
-7891 810 0
-9633 -810 7891 0
-7892 9633 0
-7892 821 0
-9633 -821 7892 0
-7893 9633 0
-7893 831 0
-9633 -831 7893 0
-7894 9633 0
-7894 840 0
-9633 -840 7894 0
-7895 9633 0
-7895 848 0
-9633 -848 7895 0
-7896 9633 0
-7896 855 0
-9633 -855 7896 0
-7897 9633 0
-7897 862 0
-9633 -862 7897 0
-7898 9633 0
-7898 863 0
-9633 -863 7898 0
-7899 9633 0
-7899 864 0
-9633 -864 7899 0
-7900 9633 0
-7900 865 0
-9633 -865 7900 0
-7901 9633 0
-7901 866 0
-9633 -866 7901 0
-7902 9633 0
-7902 867 0
-9633 -867 7902 0
-7903 9634 0
-7903 687 0
-9634 -687 7903 0
-7904 9634 0
-7904 706 0
-9634 -706 7904 0
-7905 9634 0
-7905 724 0
-9634 -724 7905 0
-7906 9634 0
-7906 741 0
-9634 -741 7906 0
-7907 9634 0
-7907 757 0
-9634 -757 7907 0
-7908 9634 0
-7908 772 0
-9634 -772 7908 0
-7909 9634 0
-7909 786 0
-9634 -786 7909 0
-7910 9634 0
-7910 799 0
-9634 -799 7910 0
-7911 9634 0
-7911 811 0
-9634 -811 7911 0
-7912 9634 0
-7912 822 0
-9634 -822 7912 0
-7913 9634 0
-7913 832 0
-9634 -832 7913 0
-7914 9634 0
-7914 841 0
-9634 -841 7914 0
-7915 9634 0
-7915 849 0
-9634 -849 7915 0
-7916 9634 0
-7916 856 0
-9634 -856 7916 0
-7917 9634 0
-7917 862 0
-9634 -862 7917 0
-7918 9634 0
-7918 868 0
-9634 -868 7918 0
-7919 9634 0
-7919 869 0
-9634 -869 7919 0
-7920 9634 0
-7920 870 0
-9634 -870 7920 0
-7921 9634 0
-7921 871 0
-9634 -871 7921 0
-7922 9634 0
-7922 872 0
-9634 -872 7922 0
-7923 9635 0
-7923 688 0
-9635 -688 7923 0
-7924 9635 0
-7924 707 0
-9635 -707 7924 0
-7925 9635 0
-7925 725 0
-9635 -725 7925 0
-7926 9635 0
-7926 742 0
-9635 -742 7926 0
-7927 9635 0
-7927 758 0
-9635 -758 7927 0
-7928 9635 0
-7928 773 0
-9635 -773 7928 0
-7929 9635 0
-7929 787 0
-9635 -787 7929 0
-7930 9635 0
-7930 800 0
-9635 -800 7930 0
-7931 9635 0
-7931 812 0
-9635 -812 7931 0
-7932 9635 0
-7932 823 0
-9635 -823 7932 0
-7933 9635 0
-7933 833 0
-9635 -833 7933 0
-7934 9635 0
-7934 842 0
-9635 -842 7934 0
-7935 9635 0
-7935 850 0
-9635 -850 7935 0
-7936 9635 0
-7936 857 0
-9635 -857 7936 0
-7937 9635 0
-7937 863 0
-9635 -863 7937 0
-7938 9635 0
-7938 868 0
-9635 -868 7938 0
-7939 9635 0
-7939 873 0
-9635 -873 7939 0
-7940 9635 0
-7940 874 0
-9635 -874 7940 0
-7941 9635 0
-7941 875 0
-9635 -875 7941 0
-7942 9635 0
-7942 876 0
-9635 -876 7942 0
-7943 9636 0
-7943 689 0
-9636 -689 7943 0
-7944 9636 0
-7944 708 0
-9636 -708 7944 0
-7945 9636 0
-7945 726 0
-9636 -726 7945 0
-7946 9636 0
-7946 743 0
-9636 -743 7946 0
-7947 9636 0
-7947 759 0
-9636 -759 7947 0
-7948 9636 0
-7948 774 0
-9636 -774 7948 0
-7949 9636 0
-7949 788 0
-9636 -788 7949 0
-7950 9636 0
-7950 801 0
-9636 -801 7950 0
-7951 9636 0
-7951 813 0
-9636 -813 7951 0
-7952 9636 0
-7952 824 0
-9636 -824 7952 0
-7953 9636 0
-7953 834 0
-9636 -834 7953 0
-7954 9636 0
-7954 843 0
-9636 -843 7954 0
-7955 9636 0
-7955 851 0
-9636 -851 7955 0
-7956 9636 0
-7956 858 0
-9636 -858 7956 0
-7957 9636 0
-7957 864 0
-9636 -864 7957 0
-7958 9636 0
-7958 869 0
-9636 -869 7958 0
-7959 9636 0
-7959 873 0
-9636 -873 7959 0
-7960 9636 0
-7960 877 0
-9636 -877 7960 0
-7961 9636 0
-7961 878 0
-9636 -878 7961 0
-7962 9636 0
-7962 879 0
-9636 -879 7962 0
-7963 9637 0
-7963 690 0
-9637 -690 7963 0
-7964 9637 0
-7964 709 0
-9637 -709 7964 0
-7965 9637 0
-7965 727 0
-9637 -727 7965 0
-7966 9637 0
-7966 744 0
-9637 -744 7966 0
-7967 9637 0
-7967 760 0
-9637 -760 7967 0
-7968 9637 0
-7968 775 0
-9637 -775 7968 0
-7969 9637 0
-7969 789 0
-9637 -789 7969 0
-7970 9637 0
-7970 802 0
-9637 -802 7970 0
-7971 9637 0
-7971 814 0
-9637 -814 7971 0
-7972 9637 0
-7972 825 0
-9637 -825 7972 0
-7973 9637 0
-7973 835 0
-9637 -835 7973 0
-7974 9637 0
-7974 844 0
-9637 -844 7974 0
-7975 9637 0
-7975 852 0
-9637 -852 7975 0
-7976 9637 0
-7976 859 0
-9637 -859 7976 0
-7977 9637 0
-7977 865 0
-9637 -865 7977 0
-7978 9637 0
-7978 870 0
-9637 -870 7978 0
-7979 9637 0
-7979 874 0
-9637 -874 7979 0
-7980 9637 0
-7980 877 0
-9637 -877 7980 0
-7981 9637 0
-7981 880 0
-9637 -880 7981 0
-7982 9637 0
-7982 881 0
-9637 -881 7982 0
-7983 9638 0
-7983 691 0
-9638 -691 7983 0
-7984 9638 0
-7984 710 0
-9638 -710 7984 0
-7985 9638 0
-7985 728 0
-9638 -728 7985 0
-7986 9638 0
-7986 745 0
-9638 -745 7986 0
-7987 9638 0
-7987 761 0
-9638 -761 7987 0
-7988 9638 0
-7988 776 0
-9638 -776 7988 0
-7989 9638 0
-7989 790 0
-9638 -790 7989 0
-7990 9638 0
-7990 803 0
-9638 -803 7990 0
-7991 9638 0
-7991 815 0
-9638 -815 7991 0
-7992 9638 0
-7992 826 0
-9638 -826 7992 0
-7993 9638 0
-7993 836 0
-9638 -836 7993 0
-7994 9638 0
-7994 845 0
-9638 -845 7994 0
-7995 9638 0
-7995 853 0
-9638 -853 7995 0
-7996 9638 0
-7996 860 0
-9638 -860 7996 0
-7997 9638 0
-7997 866 0
-9638 -866 7997 0
-7998 9638 0
-7998 871 0
-9638 -871 7998 0
-7999 9638 0
-7999 875 0
-9638 -875 7999 0
-8000 9638 0
-8000 878 0
-9638 -878 8000 0
-8001 9638 0
-8001 880 0
-9638 -880 8001 0
-8002 9638 0
-8002 882 0
-9638 -882 8002 0
-8003 9639 0
-8003 692 0
-9639 -692 8003 0
-8004 9639 0
-8004 711 0
-9639 -711 8004 0
-8005 9639 0
-8005 729 0
-9639 -729 8005 0
-8006 9639 0
-8006 746 0
-9639 -746 8006 0
-8007 9639 0
-8007 762 0
-9639 -762 8007 0
-8008 9639 0
-8008 777 0
-9639 -777 8008 0
-8009 9639 0
-8009 791 0
-9639 -791 8009 0
-8010 9639 0
-8010 804 0
-9639 -804 8010 0
-8011 9639 0
-8011 816 0
-9639 -816 8011 0
-8012 9639 0
-8012 827 0
-9639 -827 8012 0
-8013 9639 0
-8013 837 0
-9639 -837 8013 0
-8014 9639 0
-8014 846 0
-9639 -846 8014 0
-8015 9639 0
-8015 854 0
-9639 -854 8015 0
-8016 9639 0
-8016 861 0
-9639 -861 8016 0
-8017 9639 0
-8017 867 0
-9639 -867 8017 0
-8018 9639 0
-8018 872 0
-9639 -872 8018 0
-8019 9639 0
-8019 876 0
-9639 -876 8019 0
-8020 9639 0
-8020 879 0
-9639 -879 8020 0
-8021 9639 0
-8021 881 0
-9639 -881 8021 0
-8022 9639 0
-8022 882 0
-9639 -882 8022 0
-8023 9640 0
-8023 673 0
-9640 -673 8023 0
-8024 9640 0
-8024 674 0
-9640 -674 8024 0
-8025 9640 0
-8025 675 0
-9640 -675 8025 0
-8026 9640 0
-8026 676 0
-9640 -676 8026 0
-8027 9640 0
-8027 677 0
-9640 -677 8027 0
-8028 9640 0
-8028 678 0
-9640 -678 8028 0
-8029 9640 0
-8029 679 0
-9640 -679 8029 0
-8030 9640 0
-8030 680 0
-9640 -680 8030 0
-8031 9640 0
-8031 681 0
-9640 -681 8031 0
-8032 9640 0
-8032 682 0
-9640 -682 8032 0
-8033 9640 0
-8033 683 0
-9640 -683 8033 0
-8034 9640 0
-8034 684 0
-9640 -684 8034 0
-8035 9640 0
-8035 685 0
-9640 -685 8035 0
-8036 9640 0
-8036 686 0
-9640 -686 8036 0
-8037 9640 0
-8037 687 0
-9640 -687 8037 0
-8038 9640 0
-8038 688 0
-9640 -688 8038 0
-8039 9640 0
-8039 689 0
-9640 -689 8039 0
-8040 9640 0
-8040 690 0
-9640 -690 8040 0
-8041 9640 0
-8041 691 0
-9640 -691 8041 0
-8042 9640 0
-8042 692 0
-9640 -692 8042 0
-8043 9641 0
-8043 673 0
-9641 -673 8043 0
-8044 9641 0
-8044 693 0
-9641 -693 8044 0
-8045 9641 0
-8045 694 0
-9641 -694 8045 0
-8046 9641 0
-8046 695 0
-9641 -695 8046 0
-8047 9641 0
-8047 696 0
-9641 -696 8047 0
-8048 9641 0
-8048 697 0
-9641 -697 8048 0
-8049 9641 0
-8049 698 0
-9641 -698 8049 0
-8050 9641 0
-8050 699 0
-9641 -699 8050 0
-8051 9641 0
-8051 700 0
-9641 -700 8051 0
-8052 9641 0
-8052 701 0
-9641 -701 8052 0
-8053 9641 0
-8053 702 0
-9641 -702 8053 0
-8054 9641 0
-8054 703 0
-9641 -703 8054 0
-8055 9641 0
-8055 704 0
-9641 -704 8055 0
-8056 9641 0
-8056 705 0
-9641 -705 8056 0
-8057 9641 0
-8057 706 0
-9641 -706 8057 0
-8058 9641 0
-8058 707 0
-9641 -707 8058 0
-8059 9641 0
-8059 708 0
-9641 -708 8059 0
-8060 9641 0
-8060 709 0
-9641 -709 8060 0
-8061 9641 0
-8061 710 0
-9641 -710 8061 0
-8062 9641 0
-8062 711 0
-9641 -711 8062 0
-8063 9642 0
-8063 674 0
-9642 -674 8063 0
-8064 9642 0
-8064 693 0
-9642 -693 8064 0
-8065 9642 0
-8065 712 0
-9642 -712 8065 0
-8066 9642 0
-8066 713 0
-9642 -713 8066 0
-8067 9642 0
-8067 714 0
-9642 -714 8067 0
-8068 9642 0
-8068 715 0
-9642 -715 8068 0
-8069 9642 0
-8069 716 0
-9642 -716 8069 0
-8070 9642 0
-8070 717 0
-9642 -717 8070 0
-8071 9642 0
-8071 718 0
-9642 -718 8071 0
-8072 9642 0
-8072 719 0
-9642 -719 8072 0
-8073 9642 0
-8073 720 0
-9642 -720 8073 0
-8074 9642 0
-8074 721 0
-9642 -721 8074 0
-8075 9642 0
-8075 722 0
-9642 -722 8075 0
-8076 9642 0
-8076 723 0
-9642 -723 8076 0
-8077 9642 0
-8077 724 0
-9642 -724 8077 0
-8078 9642 0
-8078 725 0
-9642 -725 8078 0
-8079 9642 0
-8079 726 0
-9642 -726 8079 0
-8080 9642 0
-8080 727 0
-9642 -727 8080 0
-8081 9642 0
-8081 728 0
-9642 -728 8081 0
-8082 9642 0
-8082 729 0
-9642 -729 8082 0
-8083 9643 0
-8083 675 0
-9643 -675 8083 0
-8084 9643 0
-8084 694 0
-9643 -694 8084 0
-8085 9643 0
-8085 712 0
-9643 -712 8085 0
-8086 9643 0
-8086 730 0
-9643 -730 8086 0
-8087 9643 0
-8087 731 0
-9643 -731 8087 0
-8088 9643 0
-8088 732 0
-9643 -732 8088 0
-8089 9643 0
-8089 733 0
-9643 -733 8089 0
-8090 9643 0
-8090 734 0
-9643 -734 8090 0
-8091 9643 0
-8091 735 0
-9643 -735 8091 0
-8092 9643 0
-8092 736 0
-9643 -736 8092 0
-8093 9643 0
-8093 737 0
-9643 -737 8093 0
-8094 9643 0
-8094 738 0
-9643 -738 8094 0
-8095 9643 0
-8095 739 0
-9643 -739 8095 0
-8096 9643 0
-8096 740 0
-9643 -740 8096 0
-8097 9643 0
-8097 741 0
-9643 -741 8097 0
-8098 9643 0
-8098 742 0
-9643 -742 8098 0
-8099 9643 0
-8099 743 0
-9643 -743 8099 0
-8100 9643 0
-8100 744 0
-9643 -744 8100 0
-8101 9643 0
-8101 745 0
-9643 -745 8101 0
-8102 9643 0
-8102 746 0
-9643 -746 8102 0
-8103 9644 0
-8103 676 0
-9644 -676 8103 0
-8104 9644 0
-8104 695 0
-9644 -695 8104 0
-8105 9644 0
-8105 713 0
-9644 -713 8105 0
-8106 9644 0
-8106 730 0
-9644 -730 8106 0
-8107 9644 0
-8107 747 0
-9644 -747 8107 0
-8108 9644 0
-8108 748 0
-9644 -748 8108 0
-8109 9644 0
-8109 749 0
-9644 -749 8109 0
-8110 9644 0
-8110 750 0
-9644 -750 8110 0
-8111 9644 0
-8111 751 0
-9644 -751 8111 0
-8112 9644 0
-8112 752 0
-9644 -752 8112 0
-8113 9644 0
-8113 753 0
-9644 -753 8113 0
-8114 9644 0
-8114 754 0
-9644 -754 8114 0
-8115 9644 0
-8115 755 0
-9644 -755 8115 0
-8116 9644 0
-8116 756 0
-9644 -756 8116 0
-8117 9644 0
-8117 757 0
-9644 -757 8117 0
-8118 9644 0
-8118 758 0
-9644 -758 8118 0
-8119 9644 0
-8119 759 0
-9644 -759 8119 0
-8120 9644 0
-8120 760 0
-9644 -760 8120 0
-8121 9644 0
-8121 761 0
-9644 -761 8121 0
-8122 9644 0
-8122 762 0
-9644 -762 8122 0
-8123 9645 0
-8123 677 0
-9645 -677 8123 0
-8124 9645 0
-8124 696 0
-9645 -696 8124 0
-8125 9645 0
-8125 714 0
-9645 -714 8125 0
-8126 9645 0
-8126 731 0
-9645 -731 8126 0
-8127 9645 0
-8127 747 0
-9645 -747 8127 0
-8128 9645 0
-8128 763 0
-9645 -763 8128 0
-8129 9645 0
-8129 764 0
-9645 -764 8129 0
-8130 9645 0
-8130 765 0
-9645 -765 8130 0
-8131 9645 0
-8131 766 0
-9645 -766 8131 0
-8132 9645 0
-8132 767 0
-9645 -767 8132 0
-8133 9645 0
-8133 768 0
-9645 -768 8133 0
-8134 9645 0
-8134 769 0
-9645 -769 8134 0
-8135 9645 0
-8135 770 0
-9645 -770 8135 0
-8136 9645 0
-8136 771 0
-9645 -771 8136 0
-8137 9645 0
-8137 772 0
-9645 -772 8137 0
-8138 9645 0
-8138 773 0
-9645 -773 8138 0
-8139 9645 0
-8139 774 0
-9645 -774 8139 0
-8140 9645 0
-8140 775 0
-9645 -775 8140 0
-8141 9645 0
-8141 776 0
-9645 -776 8141 0
-8142 9645 0
-8142 777 0
-9645 -777 8142 0
-8143 9646 0
-8143 678 0
-9646 -678 8143 0
-8144 9646 0
-8144 697 0
-9646 -697 8144 0
-8145 9646 0
-8145 715 0
-9646 -715 8145 0
-8146 9646 0
-8146 732 0
-9646 -732 8146 0
-8147 9646 0
-8147 748 0
-9646 -748 8147 0
-8148 9646 0
-8148 763 0
-9646 -763 8148 0
-8149 9646 0
-8149 778 0
-9646 -778 8149 0
-8150 9646 0
-8150 779 0
-9646 -779 8150 0
-8151 9646 0
-8151 780 0
-9646 -780 8151 0
-8152 9646 0
-8152 781 0
-9646 -781 8152 0
-8153 9646 0
-8153 782 0
-9646 -782 8153 0
-8154 9646 0
-8154 783 0
-9646 -783 8154 0
-8155 9646 0
-8155 784 0
-9646 -784 8155 0
-8156 9646 0
-8156 785 0
-9646 -785 8156 0
-8157 9646 0
-8157 786 0
-9646 -786 8157 0
-8158 9646 0
-8158 787 0
-9646 -787 8158 0
-8159 9646 0
-8159 788 0
-9646 -788 8159 0
-8160 9646 0
-8160 789 0
-9646 -789 8160 0
-8161 9646 0
-8161 790 0
-9646 -790 8161 0
-8162 9646 0
-8162 791 0
-9646 -791 8162 0
-8163 9647 0
-8163 679 0
-9647 -679 8163 0
-8164 9647 0
-8164 698 0
-9647 -698 8164 0
-8165 9647 0
-8165 716 0
-9647 -716 8165 0
-8166 9647 0
-8166 733 0
-9647 -733 8166 0
-8167 9647 0
-8167 749 0
-9647 -749 8167 0
-8168 9647 0
-8168 764 0
-9647 -764 8168 0
-8169 9647 0
-8169 778 0
-9647 -778 8169 0
-8170 9647 0
-8170 792 0
-9647 -792 8170 0
-8171 9647 0
-8171 793 0
-9647 -793 8171 0
-8172 9647 0
-8172 794 0
-9647 -794 8172 0
-8173 9647 0
-8173 795 0
-9647 -795 8173 0
-8174 9647 0
-8174 796 0
-9647 -796 8174 0
-8175 9647 0
-8175 797 0
-9647 -797 8175 0
-8176 9647 0
-8176 798 0
-9647 -798 8176 0
-8177 9647 0
-8177 799 0
-9647 -799 8177 0
-8178 9647 0
-8178 800 0
-9647 -800 8178 0
-8179 9647 0
-8179 801 0
-9647 -801 8179 0
-8180 9647 0
-8180 802 0
-9647 -802 8180 0
-8181 9647 0
-8181 803 0
-9647 -803 8181 0
-8182 9647 0
-8182 804 0
-9647 -804 8182 0
-8183 9648 0
-8183 680 0
-9648 -680 8183 0
-8184 9648 0
-8184 699 0
-9648 -699 8184 0
-8185 9648 0
-8185 717 0
-9648 -717 8185 0
-8186 9648 0
-8186 734 0
-9648 -734 8186 0
-8187 9648 0
-8187 750 0
-9648 -750 8187 0
-8188 9648 0
-8188 765 0
-9648 -765 8188 0
-8189 9648 0
-8189 779 0
-9648 -779 8189 0
-8190 9648 0
-8190 792 0
-9648 -792 8190 0
-8191 9648 0
-8191 805 0
-9648 -805 8191 0
-8192 9648 0
-8192 806 0
-9648 -806 8192 0
-8193 9648 0
-8193 807 0
-9648 -807 8193 0
-8194 9648 0
-8194 808 0
-9648 -808 8194 0
-8195 9648 0
-8195 809 0
-9648 -809 8195 0
-8196 9648 0
-8196 810 0
-9648 -810 8196 0
-8197 9648 0
-8197 811 0
-9648 -811 8197 0
-8198 9648 0
-8198 812 0
-9648 -812 8198 0
-8199 9648 0
-8199 813 0
-9648 -813 8199 0
-8200 9648 0
-8200 814 0
-9648 -814 8200 0
-8201 9648 0
-8201 815 0
-9648 -815 8201 0
-8202 9648 0
-8202 816 0
-9648 -816 8202 0
-8203 9649 0
-8203 681 0
-9649 -681 8203 0
-8204 9649 0
-8204 700 0
-9649 -700 8204 0
-8205 9649 0
-8205 718 0
-9649 -718 8205 0
-8206 9649 0
-8206 735 0
-9649 -735 8206 0
-8207 9649 0
-8207 751 0
-9649 -751 8207 0
-8208 9649 0
-8208 766 0
-9649 -766 8208 0
-8209 9649 0
-8209 780 0
-9649 -780 8209 0
-8210 9649 0
-8210 793 0
-9649 -793 8210 0
-8211 9649 0
-8211 805 0
-9649 -805 8211 0
-8212 9649 0
-8212 817 0
-9649 -817 8212 0
-8213 9649 0
-8213 818 0
-9649 -818 8213 0
-8214 9649 0
-8214 819 0
-9649 -819 8214 0
-8215 9649 0
-8215 820 0
-9649 -820 8215 0
-8216 9649 0
-8216 821 0
-9649 -821 8216 0
-8217 9649 0
-8217 822 0
-9649 -822 8217 0
-8218 9649 0
-8218 823 0
-9649 -823 8218 0
-8219 9649 0
-8219 824 0
-9649 -824 8219 0
-8220 9649 0
-8220 825 0
-9649 -825 8220 0
-8221 9649 0
-8221 826 0
-9649 -826 8221 0
-8222 9649 0
-8222 827 0
-9649 -827 8222 0
-8223 9650 0
-8223 682 0
-9650 -682 8223 0
-8224 9650 0
-8224 701 0
-9650 -701 8224 0
-8225 9650 0
-8225 719 0
-9650 -719 8225 0
-8226 9650 0
-8226 736 0
-9650 -736 8226 0
-8227 9650 0
-8227 752 0
-9650 -752 8227 0
-8228 9650 0
-8228 767 0
-9650 -767 8228 0
-8229 9650 0
-8229 781 0
-9650 -781 8229 0
-8230 9650 0
-8230 794 0
-9650 -794 8230 0
-8231 9650 0
-8231 806 0
-9650 -806 8231 0
-8232 9650 0
-8232 817 0
-9650 -817 8232 0
-8233 9650 0
-8233 828 0
-9650 -828 8233 0
-8234 9650 0
-8234 829 0
-9650 -829 8234 0
-8235 9650 0
-8235 830 0
-9650 -830 8235 0
-8236 9650 0
-8236 831 0
-9650 -831 8236 0
-8237 9650 0
-8237 832 0
-9650 -832 8237 0
-8238 9650 0
-8238 833 0
-9650 -833 8238 0
-8239 9650 0
-8239 834 0
-9650 -834 8239 0
-8240 9650 0
-8240 835 0
-9650 -835 8240 0
-8241 9650 0
-8241 836 0
-9650 -836 8241 0
-8242 9650 0
-8242 837 0
-9650 -837 8242 0
-8243 9651 0
-8243 683 0
-9651 -683 8243 0
-8244 9651 0
-8244 702 0
-9651 -702 8244 0
-8245 9651 0
-8245 720 0
-9651 -720 8245 0
-8246 9651 0
-8246 737 0
-9651 -737 8246 0
-8247 9651 0
-8247 753 0
-9651 -753 8247 0
-8248 9651 0
-8248 768 0
-9651 -768 8248 0
-8249 9651 0
-8249 782 0
-9651 -782 8249 0
-8250 9651 0
-8250 795 0
-9651 -795 8250 0
-8251 9651 0
-8251 807 0
-9651 -807 8251 0
-8252 9651 0
-8252 818 0
-9651 -818 8252 0
-8253 9651 0
-8253 828 0
-9651 -828 8253 0
-8254 9651 0
-8254 838 0
-9651 -838 8254 0
-8255 9651 0
-8255 839 0
-9651 -839 8255 0
-8256 9651 0
-8256 840 0
-9651 -840 8256 0
-8257 9651 0
-8257 841 0
-9651 -841 8257 0
-8258 9651 0
-8258 842 0
-9651 -842 8258 0
-8259 9651 0
-8259 843 0
-9651 -843 8259 0
-8260 9651 0
-8260 844 0
-9651 -844 8260 0
-8261 9651 0
-8261 845 0
-9651 -845 8261 0
-8262 9651 0
-8262 846 0
-9651 -846 8262 0
-8263 9652 0
-8263 684 0
-9652 -684 8263 0
-8264 9652 0
-8264 703 0
-9652 -703 8264 0
-8265 9652 0
-8265 721 0
-9652 -721 8265 0
-8266 9652 0
-8266 738 0
-9652 -738 8266 0
-8267 9652 0
-8267 754 0
-9652 -754 8267 0
-8268 9652 0
-8268 769 0
-9652 -769 8268 0
-8269 9652 0
-8269 783 0
-9652 -783 8269 0
-8270 9652 0
-8270 796 0
-9652 -796 8270 0
-8271 9652 0
-8271 808 0
-9652 -808 8271 0
-8272 9652 0
-8272 819 0
-9652 -819 8272 0
-8273 9652 0
-8273 829 0
-9652 -829 8273 0
-8274 9652 0
-8274 838 0
-9652 -838 8274 0
-8275 9652 0
-8275 847 0
-9652 -847 8275 0
-8276 9652 0
-8276 848 0
-9652 -848 8276 0
-8277 9652 0
-8277 849 0
-9652 -849 8277 0
-8278 9652 0
-8278 850 0
-9652 -850 8278 0
-8279 9652 0
-8279 851 0
-9652 -851 8279 0
-8280 9652 0
-8280 852 0
-9652 -852 8280 0
-8281 9652 0
-8281 853 0
-9652 -853 8281 0
-8282 9652 0
-8282 854 0
-9652 -854 8282 0
-8283 9653 0
-8283 685 0
-9653 -685 8283 0
-8284 9653 0
-8284 704 0
-9653 -704 8284 0
-8285 9653 0
-8285 722 0
-9653 -722 8285 0
-8286 9653 0
-8286 739 0
-9653 -739 8286 0
-8287 9653 0
-8287 755 0
-9653 -755 8287 0
-8288 9653 0
-8288 770 0
-9653 -770 8288 0
-8289 9653 0
-8289 784 0
-9653 -784 8289 0
-8290 9653 0
-8290 797 0
-9653 -797 8290 0
-8291 9653 0
-8291 809 0
-9653 -809 8291 0
-8292 9653 0
-8292 820 0
-9653 -820 8292 0
-8293 9653 0
-8293 830 0
-9653 -830 8293 0
-8294 9653 0
-8294 839 0
-9653 -839 8294 0
-8295 9653 0
-8295 847 0
-9653 -847 8295 0
-8296 9653 0
-8296 855 0
-9653 -855 8296 0
-8297 9653 0
-8297 856 0
-9653 -856 8297 0
-8298 9653 0
-8298 857 0
-9653 -857 8298 0
-8299 9653 0
-8299 858 0
-9653 -858 8299 0
-8300 9653 0
-8300 859 0
-9653 -859 8300 0
-8301 9653 0
-8301 860 0
-9653 -860 8301 0
-8302 9653 0
-8302 861 0
-9653 -861 8302 0
-8303 9654 0
-8303 686 0
-9654 -686 8303 0
-8304 9654 0
-8304 705 0
-9654 -705 8304 0
-8305 9654 0
-8305 723 0
-9654 -723 8305 0
-8306 9654 0
-8306 740 0
-9654 -740 8306 0
-8307 9654 0
-8307 756 0
-9654 -756 8307 0
-8308 9654 0
-8308 771 0
-9654 -771 8308 0
-8309 9654 0
-8309 785 0
-9654 -785 8309 0
-8310 9654 0
-8310 798 0
-9654 -798 8310 0
-8311 9654 0
-8311 810 0
-9654 -810 8311 0
-8312 9654 0
-8312 821 0
-9654 -821 8312 0
-8313 9654 0
-8313 831 0
-9654 -831 8313 0
-8314 9654 0
-8314 840 0
-9654 -840 8314 0
-8315 9654 0
-8315 848 0
-9654 -848 8315 0
-8316 9654 0
-8316 855 0
-9654 -855 8316 0
-8317 9654 0
-8317 862 0
-9654 -862 8317 0
-8318 9654 0
-8318 863 0
-9654 -863 8318 0
-8319 9654 0
-8319 864 0
-9654 -864 8319 0
-8320 9654 0
-8320 865 0
-9654 -865 8320 0
-8321 9654 0
-8321 866 0
-9654 -866 8321 0
-8322 9654 0
-8322 867 0
-9654 -867 8322 0
-8323 9655 0
-8323 687 0
-9655 -687 8323 0
-8324 9655 0
-8324 706 0
-9655 -706 8324 0
-8325 9655 0
-8325 724 0
-9655 -724 8325 0
-8326 9655 0
-8326 741 0
-9655 -741 8326 0
-8327 9655 0
-8327 757 0
-9655 -757 8327 0
-8328 9655 0
-8328 772 0
-9655 -772 8328 0
-8329 9655 0
-8329 786 0
-9655 -786 8329 0
-8330 9655 0
-8330 799 0
-9655 -799 8330 0
-8331 9655 0
-8331 811 0
-9655 -811 8331 0
-8332 9655 0
-8332 822 0
-9655 -822 8332 0
-8333 9655 0
-8333 832 0
-9655 -832 8333 0
-8334 9655 0
-8334 841 0
-9655 -841 8334 0
-8335 9655 0
-8335 849 0
-9655 -849 8335 0
-8336 9655 0
-8336 856 0
-9655 -856 8336 0
-8337 9655 0
-8337 862 0
-9655 -862 8337 0
-8338 9655 0
-8338 868 0
-9655 -868 8338 0
-8339 9655 0
-8339 869 0
-9655 -869 8339 0
-8340 9655 0
-8340 870 0
-9655 -870 8340 0
-8341 9655 0
-8341 871 0
-9655 -871 8341 0
-8342 9655 0
-8342 872 0
-9655 -872 8342 0
-8343 9656 0
-8343 688 0
-9656 -688 8343 0
-8344 9656 0
-8344 707 0
-9656 -707 8344 0
-8345 9656 0
-8345 725 0
-9656 -725 8345 0
-8346 9656 0
-8346 742 0
-9656 -742 8346 0
-8347 9656 0
-8347 758 0
-9656 -758 8347 0
-8348 9656 0
-8348 773 0
-9656 -773 8348 0
-8349 9656 0
-8349 787 0
-9656 -787 8349 0
-8350 9656 0
-8350 800 0
-9656 -800 8350 0
-8351 9656 0
-8351 812 0
-9656 -812 8351 0
-8352 9656 0
-8352 823 0
-9656 -823 8352 0
-8353 9656 0
-8353 833 0
-9656 -833 8353 0
-8354 9656 0
-8354 842 0
-9656 -842 8354 0
-8355 9656 0
-8355 850 0
-9656 -850 8355 0
-8356 9656 0
-8356 857 0
-9656 -857 8356 0
-8357 9656 0
-8357 863 0
-9656 -863 8357 0
-8358 9656 0
-8358 868 0
-9656 -868 8358 0
-8359 9656 0
-8359 873 0
-9656 -873 8359 0
-8360 9656 0
-8360 874 0
-9656 -874 8360 0
-8361 9656 0
-8361 875 0
-9656 -875 8361 0
-8362 9656 0
-8362 876 0
-9656 -876 8362 0
-8363 9657 0
-8363 689 0
-9657 -689 8363 0
-8364 9657 0
-8364 708 0
-9657 -708 8364 0
-8365 9657 0
-8365 726 0
-9657 -726 8365 0
-8366 9657 0
-8366 743 0
-9657 -743 8366 0
-8367 9657 0
-8367 759 0
-9657 -759 8367 0
-8368 9657 0
-8368 774 0
-9657 -774 8368 0
-8369 9657 0
-8369 788 0
-9657 -788 8369 0
-8370 9657 0
-8370 801 0
-9657 -801 8370 0
-8371 9657 0
-8371 813 0
-9657 -813 8371 0
-8372 9657 0
-8372 824 0
-9657 -824 8372 0
-8373 9657 0
-8373 834 0
-9657 -834 8373 0
-8374 9657 0
-8374 843 0
-9657 -843 8374 0
-8375 9657 0
-8375 851 0
-9657 -851 8375 0
-8376 9657 0
-8376 858 0
-9657 -858 8376 0
-8377 9657 0
-8377 864 0
-9657 -864 8377 0
-8378 9657 0
-8378 869 0
-9657 -869 8378 0
-8379 9657 0
-8379 873 0
-9657 -873 8379 0
-8380 9657 0
-8380 877 0
-9657 -877 8380 0
-8381 9657 0
-8381 878 0
-9657 -878 8381 0
-8382 9657 0
-8382 879 0
-9657 -879 8382 0
-8383 9658 0
-8383 690 0
-9658 -690 8383 0
-8384 9658 0
-8384 709 0
-9658 -709 8384 0
-8385 9658 0
-8385 727 0
-9658 -727 8385 0
-8386 9658 0
-8386 744 0
-9658 -744 8386 0
-8387 9658 0
-8387 760 0
-9658 -760 8387 0
-8388 9658 0
-8388 775 0
-9658 -775 8388 0
-8389 9658 0
-8389 789 0
-9658 -789 8389 0
-8390 9658 0
-8390 802 0
-9658 -802 8390 0
-8391 9658 0
-8391 814 0
-9658 -814 8391 0
-8392 9658 0
-8392 825 0
-9658 -825 8392 0
-8393 9658 0
-8393 835 0
-9658 -835 8393 0
-8394 9658 0
-8394 844 0
-9658 -844 8394 0
-8395 9658 0
-8395 852 0
-9658 -852 8395 0
-8396 9658 0
-8396 859 0
-9658 -859 8396 0
-8397 9658 0
-8397 865 0
-9658 -865 8397 0
-8398 9658 0
-8398 870 0
-9658 -870 8398 0
-8399 9658 0
-8399 874 0
-9658 -874 8399 0
-8400 9658 0
-8400 877 0
-9658 -877 8400 0
-8401 9658 0
-8401 880 0
-9658 -880 8401 0
-8402 9658 0
-8402 881 0
-9658 -881 8402 0
-8403 9659 0
-8403 691 0
-9659 -691 8403 0
-8404 9659 0
-8404 710 0
-9659 -710 8404 0
-8405 9659 0
-8405 728 0
-9659 -728 8405 0
-8406 9659 0
-8406 745 0
-9659 -745 8406 0
-8407 9659 0
-8407 761 0
-9659 -761 8407 0
-8408 9659 0
-8408 776 0
-9659 -776 8408 0
-8409 9659 0
-8409 790 0
-9659 -790 8409 0
-8410 9659 0
-8410 803 0
-9659 -803 8410 0
-8411 9659 0
-8411 815 0
-9659 -815 8411 0
-8412 9659 0
-8412 826 0
-9659 -826 8412 0
-8413 9659 0
-8413 836 0
-9659 -836 8413 0
-8414 9659 0
-8414 845 0
-9659 -845 8414 0
-8415 9659 0
-8415 853 0
-9659 -853 8415 0
-8416 9659 0
-8416 860 0
-9659 -860 8416 0
-8417 9659 0
-8417 866 0
-9659 -866 8417 0
-8418 9659 0
-8418 871 0
-9659 -871 8418 0
-8419 9659 0
-8419 875 0
-9659 -875 8419 0
-8420 9659 0
-8420 878 0
-9659 -878 8420 0
-8421 9659 0
-8421 880 0
-9659 -880 8421 0
-8422 9659 0
-8422 882 0
-9659 -882 8422 0
-8423 9660 0
-8423 692 0
-9660 -692 8423 0
-8424 9660 0
-8424 711 0
-9660 -711 8424 0
-8425 9660 0
-8425 729 0
-9660 -729 8425 0
-8426 9660 0
-8426 746 0
-9660 -746 8426 0
-8427 9660 0
-8427 762 0
-9660 -762 8427 0
-8428 9660 0
-8428 777 0
-9660 -777 8428 0
-8429 9660 0
-8429 791 0
-9660 -791 8429 0
-8430 9660 0
-8430 804 0
-9660 -804 8430 0
-8431 9660 0
-8431 816 0
-9660 -816 8431 0
-8432 9660 0
-8432 827 0
-9660 -827 8432 0
-8433 9660 0
-8433 837 0
-9660 -837 8433 0
-8434 9660 0
-8434 846 0
-9660 -846 8434 0
-8435 9660 0
-8435 854 0
-9660 -854 8435 0
-8436 9660 0
-8436 861 0
-9660 -861 8436 0
-8437 9660 0
-8437 867 0
-9660 -867 8437 0
-8438 9660 0
-8438 872 0
-9660 -872 8438 0
-8439 9660 0
-8439 876 0
-9660 -876 8439 0
-8440 9660 0
-8440 879 0
-9660 -879 8440 0
-8441 9660 0
-8441 881 0
-9660 -881 8441 0
-8442 9660 0
-8442 882 0
-9660 -882 8442 0
-8443 9661 0
-8443 673 0
-9661 -673 8443 0
-8444 9661 0
-8444 674 0
-9661 -674 8444 0
-8445 9661 0
-8445 675 0
-9661 -675 8445 0
-8446 9661 0
-8446 676 0
-9661 -676 8446 0
-8447 9661 0
-8447 677 0
-9661 -677 8447 0
-8448 9661 0
-8448 678 0
-9661 -678 8448 0
-8449 9661 0
-8449 679 0
-9661 -679 8449 0
-8450 9661 0
-8450 680 0
-9661 -680 8450 0
-8451 9661 0
-8451 681 0
-9661 -681 8451 0
-8452 9661 0
-8452 682 0
-9661 -682 8452 0
-8453 9661 0
-8453 683 0
-9661 -683 8453 0
-8454 9661 0
-8454 684 0
-9661 -684 8454 0
-8455 9661 0
-8455 685 0
-9661 -685 8455 0
-8456 9661 0
-8456 686 0
-9661 -686 8456 0
-8457 9661 0
-8457 687 0
-9661 -687 8457 0
-8458 9661 0
-8458 688 0
-9661 -688 8458 0
-8459 9661 0
-8459 689 0
-9661 -689 8459 0
-8460 9661 0
-8460 690 0
-9661 -690 8460 0
-8461 9661 0
-8461 691 0
-9661 -691 8461 0
-8462 9661 0
-8462 692 0
-9661 -692 8462 0
-8463 9662 0
-8463 673 0
-9662 -673 8463 0
-8464 9662 0
-8464 693 0
-9662 -693 8464 0
-8465 9662 0
-8465 694 0
-9662 -694 8465 0
-8466 9662 0
-8466 695 0
-9662 -695 8466 0
-8467 9662 0
-8467 696 0
-9662 -696 8467 0
-8468 9662 0
-8468 697 0
-9662 -697 8468 0
-8469 9662 0
-8469 698 0
-9662 -698 8469 0
-8470 9662 0
-8470 699 0
-9662 -699 8470 0
-8471 9662 0
-8471 700 0
-9662 -700 8471 0
-8472 9662 0
-8472 701 0
-9662 -701 8472 0
-8473 9662 0
-8473 702 0
-9662 -702 8473 0
-8474 9662 0
-8474 703 0
-9662 -703 8474 0
-8475 9662 0
-8475 704 0
-9662 -704 8475 0
-8476 9662 0
-8476 705 0
-9662 -705 8476 0
-8477 9662 0
-8477 706 0
-9662 -706 8477 0
-8478 9662 0
-8478 707 0
-9662 -707 8478 0
-8479 9662 0
-8479 708 0
-9662 -708 8479 0
-8480 9662 0
-8480 709 0
-9662 -709 8480 0
-8481 9662 0
-8481 710 0
-9662 -710 8481 0
-8482 9662 0
-8482 711 0
-9662 -711 8482 0
-8483 9663 0
-8483 674 0
-9663 -674 8483 0
-8484 9663 0
-8484 693 0
-9663 -693 8484 0
-8485 9663 0
-8485 712 0
-9663 -712 8485 0
-8486 9663 0
-8486 713 0
-9663 -713 8486 0
-8487 9663 0
-8487 714 0
-9663 -714 8487 0
-8488 9663 0
-8488 715 0
-9663 -715 8488 0
-8489 9663 0
-8489 716 0
-9663 -716 8489 0
-8490 9663 0
-8490 717 0
-9663 -717 8490 0
-8491 9663 0
-8491 718 0
-9663 -718 8491 0
-8492 9663 0
-8492 719 0
-9663 -719 8492 0
-8493 9663 0
-8493 720 0
-9663 -720 8493 0
-8494 9663 0
-8494 721 0
-9663 -721 8494 0
-8495 9663 0
-8495 722 0
-9663 -722 8495 0
-8496 9663 0
-8496 723 0
-9663 -723 8496 0
-8497 9663 0
-8497 724 0
-9663 -724 8497 0
-8498 9663 0
-8498 725 0
-9663 -725 8498 0
-8499 9663 0
-8499 726 0
-9663 -726 8499 0
-8500 9663 0
-8500 727 0
-9663 -727 8500 0
-8501 9663 0
-8501 728 0
-9663 -728 8501 0
-8502 9663 0
-8502 729 0
-9663 -729 8502 0
-8503 9664 0
-8503 675 0
-9664 -675 8503 0
-8504 9664 0
-8504 694 0
-9664 -694 8504 0
-8505 9664 0
-8505 712 0
-9664 -712 8505 0
-8506 9664 0
-8506 730 0
-9664 -730 8506 0
-8507 9664 0
-8507 731 0
-9664 -731 8507 0
-8508 9664 0
-8508 732 0
-9664 -732 8508 0
-8509 9664 0
-8509 733 0
-9664 -733 8509 0
-8510 9664 0
-8510 734 0
-9664 -734 8510 0
-8511 9664 0
-8511 735 0
-9664 -735 8511 0
-8512 9664 0
-8512 736 0
-9664 -736 8512 0
-8513 9664 0
-8513 737 0
-9664 -737 8513 0
-8514 9664 0
-8514 738 0
-9664 -738 8514 0
-8515 9664 0
-8515 739 0
-9664 -739 8515 0
-8516 9664 0
-8516 740 0
-9664 -740 8516 0
-8517 9664 0
-8517 741 0
-9664 -741 8517 0
-8518 9664 0
-8518 742 0
-9664 -742 8518 0
-8519 9664 0
-8519 743 0
-9664 -743 8519 0
-8520 9664 0
-8520 744 0
-9664 -744 8520 0
-8521 9664 0
-8521 745 0
-9664 -745 8521 0
-8522 9664 0
-8522 746 0
-9664 -746 8522 0
-8523 9665 0
-8523 676 0
-9665 -676 8523 0
-8524 9665 0
-8524 695 0
-9665 -695 8524 0
-8525 9665 0
-8525 713 0
-9665 -713 8525 0
-8526 9665 0
-8526 730 0
-9665 -730 8526 0
-8527 9665 0
-8527 747 0
-9665 -747 8527 0
-8528 9665 0
-8528 748 0
-9665 -748 8528 0
-8529 9665 0
-8529 749 0
-9665 -749 8529 0
-8530 9665 0
-8530 750 0
-9665 -750 8530 0
-8531 9665 0
-8531 751 0
-9665 -751 8531 0
-8532 9665 0
-8532 752 0
-9665 -752 8532 0
-8533 9665 0
-8533 753 0
-9665 -753 8533 0
-8534 9665 0
-8534 754 0
-9665 -754 8534 0
-8535 9665 0
-8535 755 0
-9665 -755 8535 0
-8536 9665 0
-8536 756 0
-9665 -756 8536 0
-8537 9665 0
-8537 757 0
-9665 -757 8537 0
-8538 9665 0
-8538 758 0
-9665 -758 8538 0
-8539 9665 0
-8539 759 0
-9665 -759 8539 0
-8540 9665 0
-8540 760 0
-9665 -760 8540 0
-8541 9665 0
-8541 761 0
-9665 -761 8541 0
-8542 9665 0
-8542 762 0
-9665 -762 8542 0
-8543 9666 0
-8543 677 0
-9666 -677 8543 0
-8544 9666 0
-8544 696 0
-9666 -696 8544 0
-8545 9666 0
-8545 714 0
-9666 -714 8545 0
-8546 9666 0
-8546 731 0
-9666 -731 8546 0
-8547 9666 0
-8547 747 0
-9666 -747 8547 0
-8548 9666 0
-8548 763 0
-9666 -763 8548 0
-8549 9666 0
-8549 764 0
-9666 -764 8549 0
-8550 9666 0
-8550 765 0
-9666 -765 8550 0
-8551 9666 0
-8551 766 0
-9666 -766 8551 0
-8552 9666 0
-8552 767 0
-9666 -767 8552 0
-8553 9666 0
-8553 768 0
-9666 -768 8553 0
-8554 9666 0
-8554 769 0
-9666 -769 8554 0
-8555 9666 0
-8555 770 0
-9666 -770 8555 0
-8556 9666 0
-8556 771 0
-9666 -771 8556 0
-8557 9666 0
-8557 772 0
-9666 -772 8557 0
-8558 9666 0
-8558 773 0
-9666 -773 8558 0
-8559 9666 0
-8559 774 0
-9666 -774 8559 0
-8560 9666 0
-8560 775 0
-9666 -775 8560 0
-8561 9666 0
-8561 776 0
-9666 -776 8561 0
-8562 9666 0
-8562 777 0
-9666 -777 8562 0
-8563 9667 0
-8563 678 0
-9667 -678 8563 0
-8564 9667 0
-8564 697 0
-9667 -697 8564 0
-8565 9667 0
-8565 715 0
-9667 -715 8565 0
-8566 9667 0
-8566 732 0
-9667 -732 8566 0
-8567 9667 0
-8567 748 0
-9667 -748 8567 0
-8568 9667 0
-8568 763 0
-9667 -763 8568 0
-8569 9667 0
-8569 778 0
-9667 -778 8569 0
-8570 9667 0
-8570 779 0
-9667 -779 8570 0
-8571 9667 0
-8571 780 0
-9667 -780 8571 0
-8572 9667 0
-8572 781 0
-9667 -781 8572 0
-8573 9667 0
-8573 782 0
-9667 -782 8573 0
-8574 9667 0
-8574 783 0
-9667 -783 8574 0
-8575 9667 0
-8575 784 0
-9667 -784 8575 0
-8576 9667 0
-8576 785 0
-9667 -785 8576 0
-8577 9667 0
-8577 786 0
-9667 -786 8577 0
-8578 9667 0
-8578 787 0
-9667 -787 8578 0
-8579 9667 0
-8579 788 0
-9667 -788 8579 0
-8580 9667 0
-8580 789 0
-9667 -789 8580 0
-8581 9667 0
-8581 790 0
-9667 -790 8581 0
-8582 9667 0
-8582 791 0
-9667 -791 8582 0
-8583 9668 0
-8583 679 0
-9668 -679 8583 0
-8584 9668 0
-8584 698 0
-9668 -698 8584 0
-8585 9668 0
-8585 716 0
-9668 -716 8585 0
-8586 9668 0
-8586 733 0
-9668 -733 8586 0
-8587 9668 0
-8587 749 0
-9668 -749 8587 0
-8588 9668 0
-8588 764 0
-9668 -764 8588 0
-8589 9668 0
-8589 778 0
-9668 -778 8589 0
-8590 9668 0
-8590 792 0
-9668 -792 8590 0
-8591 9668 0
-8591 793 0
-9668 -793 8591 0
-8592 9668 0
-8592 794 0
-9668 -794 8592 0
-8593 9668 0
-8593 795 0
-9668 -795 8593 0
-8594 9668 0
-8594 796 0
-9668 -796 8594 0
-8595 9668 0
-8595 797 0
-9668 -797 8595 0
-8596 9668 0
-8596 798 0
-9668 -798 8596 0
-8597 9668 0
-8597 799 0
-9668 -799 8597 0
-8598 9668 0
-8598 800 0
-9668 -800 8598 0
-8599 9668 0
-8599 801 0
-9668 -801 8599 0
-8600 9668 0
-8600 802 0
-9668 -802 8600 0
-8601 9668 0
-8601 803 0
-9668 -803 8601 0
-8602 9668 0
-8602 804 0
-9668 -804 8602 0
-8603 9669 0
-8603 680 0
-9669 -680 8603 0
-8604 9669 0
-8604 699 0
-9669 -699 8604 0
-8605 9669 0
-8605 717 0
-9669 -717 8605 0
-8606 9669 0
-8606 734 0
-9669 -734 8606 0
-8607 9669 0
-8607 750 0
-9669 -750 8607 0
-8608 9669 0
-8608 765 0
-9669 -765 8608 0
-8609 9669 0
-8609 779 0
-9669 -779 8609 0
-8610 9669 0
-8610 792 0
-9669 -792 8610 0
-8611 9669 0
-8611 805 0
-9669 -805 8611 0
-8612 9669 0
-8612 806 0
-9669 -806 8612 0
-8613 9669 0
-8613 807 0
-9669 -807 8613 0
-8614 9669 0
-8614 808 0
-9669 -808 8614 0
-8615 9669 0
-8615 809 0
-9669 -809 8615 0
-8616 9669 0
-8616 810 0
-9669 -810 8616 0
-8617 9669 0
-8617 811 0
-9669 -811 8617 0
-8618 9669 0
-8618 812 0
-9669 -812 8618 0
-8619 9669 0
-8619 813 0
-9669 -813 8619 0
-8620 9669 0
-8620 814 0
-9669 -814 8620 0
-8621 9669 0
-8621 815 0
-9669 -815 8621 0
-8622 9669 0
-8622 816 0
-9669 -816 8622 0
-8623 9670 0
-8623 681 0
-9670 -681 8623 0
-8624 9670 0
-8624 700 0
-9670 -700 8624 0
-8625 9670 0
-8625 718 0
-9670 -718 8625 0
-8626 9670 0
-8626 735 0
-9670 -735 8626 0
-8627 9670 0
-8627 751 0
-9670 -751 8627 0
-8628 9670 0
-8628 766 0
-9670 -766 8628 0
-8629 9670 0
-8629 780 0
-9670 -780 8629 0
-8630 9670 0
-8630 793 0
-9670 -793 8630 0
-8631 9670 0
-8631 805 0
-9670 -805 8631 0
-8632 9670 0
-8632 817 0
-9670 -817 8632 0
-8633 9670 0
-8633 818 0
-9670 -818 8633 0
-8634 9670 0
-8634 819 0
-9670 -819 8634 0
-8635 9670 0
-8635 820 0
-9670 -820 8635 0
-8636 9670 0
-8636 821 0
-9670 -821 8636 0
-8637 9670 0
-8637 822 0
-9670 -822 8637 0
-8638 9670 0
-8638 823 0
-9670 -823 8638 0
-8639 9670 0
-8639 824 0
-9670 -824 8639 0
-8640 9670 0
-8640 825 0
-9670 -825 8640 0
-8641 9670 0
-8641 826 0
-9670 -826 8641 0
-8642 9670 0
-8642 827 0
-9670 -827 8642 0
-8643 9671 0
-8643 682 0
-9671 -682 8643 0
-8644 9671 0
-8644 701 0
-9671 -701 8644 0
-8645 9671 0
-8645 719 0
-9671 -719 8645 0
-8646 9671 0
-8646 736 0
-9671 -736 8646 0
-8647 9671 0
-8647 752 0
-9671 -752 8647 0
-8648 9671 0
-8648 767 0
-9671 -767 8648 0
-8649 9671 0
-8649 781 0
-9671 -781 8649 0
-8650 9671 0
-8650 794 0
-9671 -794 8650 0
-8651 9671 0
-8651 806 0
-9671 -806 8651 0
-8652 9671 0
-8652 817 0
-9671 -817 8652 0
-8653 9671 0
-8653 828 0
-9671 -828 8653 0
-8654 9671 0
-8654 829 0
-9671 -829 8654 0
-8655 9671 0
-8655 830 0
-9671 -830 8655 0
-8656 9671 0
-8656 831 0
-9671 -831 8656 0
-8657 9671 0
-8657 832 0
-9671 -832 8657 0
-8658 9671 0
-8658 833 0
-9671 -833 8658 0
-8659 9671 0
-8659 834 0
-9671 -834 8659 0
-8660 9671 0
-8660 835 0
-9671 -835 8660 0
-8661 9671 0
-8661 836 0
-9671 -836 8661 0
-8662 9671 0
-8662 837 0
-9671 -837 8662 0
-8663 9672 0
-8663 683 0
-9672 -683 8663 0
-8664 9672 0
-8664 702 0
-9672 -702 8664 0
-8665 9672 0
-8665 720 0
-9672 -720 8665 0
-8666 9672 0
-8666 737 0
-9672 -737 8666 0
-8667 9672 0
-8667 753 0
-9672 -753 8667 0
-8668 9672 0
-8668 768 0
-9672 -768 8668 0
-8669 9672 0
-8669 782 0
-9672 -782 8669 0
-8670 9672 0
-8670 795 0
-9672 -795 8670 0
-8671 9672 0
-8671 807 0
-9672 -807 8671 0
-8672 9672 0
-8672 818 0
-9672 -818 8672 0
-8673 9672 0
-8673 828 0
-9672 -828 8673 0
-8674 9672 0
-8674 838 0
-9672 -838 8674 0
-8675 9672 0
-8675 839 0
-9672 -839 8675 0
-8676 9672 0
-8676 840 0
-9672 -840 8676 0
-8677 9672 0
-8677 841 0
-9672 -841 8677 0
-8678 9672 0
-8678 842 0
-9672 -842 8678 0
-8679 9672 0
-8679 843 0
-9672 -843 8679 0
-8680 9672 0
-8680 844 0
-9672 -844 8680 0
-8681 9672 0
-8681 845 0
-9672 -845 8681 0
-8682 9672 0
-8682 846 0
-9672 -846 8682 0
-8683 9673 0
-8683 684 0
-9673 -684 8683 0
-8684 9673 0
-8684 703 0
-9673 -703 8684 0
-8685 9673 0
-8685 721 0
-9673 -721 8685 0
-8686 9673 0
-8686 738 0
-9673 -738 8686 0
-8687 9673 0
-8687 754 0
-9673 -754 8687 0
-8688 9673 0
-8688 769 0
-9673 -769 8688 0
-8689 9673 0
-8689 783 0
-9673 -783 8689 0
-8690 9673 0
-8690 796 0
-9673 -796 8690 0
-8691 9673 0
-8691 808 0
-9673 -808 8691 0
-8692 9673 0
-8692 819 0
-9673 -819 8692 0
-8693 9673 0
-8693 829 0
-9673 -829 8693 0
-8694 9673 0
-8694 838 0
-9673 -838 8694 0
-8695 9673 0
-8695 847 0
-9673 -847 8695 0
-8696 9673 0
-8696 848 0
-9673 -848 8696 0
-8697 9673 0
-8697 849 0
-9673 -849 8697 0
-8698 9673 0
-8698 850 0
-9673 -850 8698 0
-8699 9673 0
-8699 851 0
-9673 -851 8699 0
-8700 9673 0
-8700 852 0
-9673 -852 8700 0
-8701 9673 0
-8701 853 0
-9673 -853 8701 0
-8702 9673 0
-8702 854 0
-9673 -854 8702 0
-8703 9674 0
-8703 685 0
-9674 -685 8703 0
-8704 9674 0
-8704 704 0
-9674 -704 8704 0
-8705 9674 0
-8705 722 0
-9674 -722 8705 0
-8706 9674 0
-8706 739 0
-9674 -739 8706 0
-8707 9674 0
-8707 755 0
-9674 -755 8707 0
-8708 9674 0
-8708 770 0
-9674 -770 8708 0
-8709 9674 0
-8709 784 0
-9674 -784 8709 0
-8710 9674 0
-8710 797 0
-9674 -797 8710 0
-8711 9674 0
-8711 809 0
-9674 -809 8711 0
-8712 9674 0
-8712 820 0
-9674 -820 8712 0
-8713 9674 0
-8713 830 0
-9674 -830 8713 0
-8714 9674 0
-8714 839 0
-9674 -839 8714 0
-8715 9674 0
-8715 847 0
-9674 -847 8715 0
-8716 9674 0
-8716 855 0
-9674 -855 8716 0
-8717 9674 0
-8717 856 0
-9674 -856 8717 0
-8718 9674 0
-8718 857 0
-9674 -857 8718 0
-8719 9674 0
-8719 858 0
-9674 -858 8719 0
-8720 9674 0
-8720 859 0
-9674 -859 8720 0
-8721 9674 0
-8721 860 0
-9674 -860 8721 0
-8722 9674 0
-8722 861 0
-9674 -861 8722 0
-8723 9675 0
-8723 686 0
-9675 -686 8723 0
-8724 9675 0
-8724 705 0
-9675 -705 8724 0
-8725 9675 0
-8725 723 0
-9675 -723 8725 0
-8726 9675 0
-8726 740 0
-9675 -740 8726 0
-8727 9675 0
-8727 756 0
-9675 -756 8727 0
-8728 9675 0
-8728 771 0
-9675 -771 8728 0
-8729 9675 0
-8729 785 0
-9675 -785 8729 0
-8730 9675 0
-8730 798 0
-9675 -798 8730 0
-8731 9675 0
-8731 810 0
-9675 -810 8731 0
-8732 9675 0
-8732 821 0
-9675 -821 8732 0
-8733 9675 0
-8733 831 0
-9675 -831 8733 0
-8734 9675 0
-8734 840 0
-9675 -840 8734 0
-8735 9675 0
-8735 848 0
-9675 -848 8735 0
-8736 9675 0
-8736 855 0
-9675 -855 8736 0
-8737 9675 0
-8737 862 0
-9675 -862 8737 0
-8738 9675 0
-8738 863 0
-9675 -863 8738 0
-8739 9675 0
-8739 864 0
-9675 -864 8739 0
-8740 9675 0
-8740 865 0
-9675 -865 8740 0
-8741 9675 0
-8741 866 0
-9675 -866 8741 0
-8742 9675 0
-8742 867 0
-9675 -867 8742 0
-8743 9676 0
-8743 687 0
-9676 -687 8743 0
-8744 9676 0
-8744 706 0
-9676 -706 8744 0
-8745 9676 0
-8745 724 0
-9676 -724 8745 0
-8746 9676 0
-8746 741 0
-9676 -741 8746 0
-8747 9676 0
-8747 757 0
-9676 -757 8747 0
-8748 9676 0
-8748 772 0
-9676 -772 8748 0
-8749 9676 0
-8749 786 0
-9676 -786 8749 0
-8750 9676 0
-8750 799 0
-9676 -799 8750 0
-8751 9676 0
-8751 811 0
-9676 -811 8751 0
-8752 9676 0
-8752 822 0
-9676 -822 8752 0
-8753 9676 0
-8753 832 0
-9676 -832 8753 0
-8754 9676 0
-8754 841 0
-9676 -841 8754 0
-8755 9676 0
-8755 849 0
-9676 -849 8755 0
-8756 9676 0
-8756 856 0
-9676 -856 8756 0
-8757 9676 0
-8757 862 0
-9676 -862 8757 0
-8758 9676 0
-8758 868 0
-9676 -868 8758 0
-8759 9676 0
-8759 869 0
-9676 -869 8759 0
-8760 9676 0
-8760 870 0
-9676 -870 8760 0
-8761 9676 0
-8761 871 0
-9676 -871 8761 0
-8762 9676 0
-8762 872 0
-9676 -872 8762 0
-8763 9677 0
-8763 688 0
-9677 -688 8763 0
-8764 9677 0
-8764 707 0
-9677 -707 8764 0
-8765 9677 0
-8765 725 0
-9677 -725 8765 0
-8766 9677 0
-8766 742 0
-9677 -742 8766 0
-8767 9677 0
-8767 758 0
-9677 -758 8767 0
-8768 9677 0
-8768 773 0
-9677 -773 8768 0
-8769 9677 0
-8769 787 0
-9677 -787 8769 0
-8770 9677 0
-8770 800 0
-9677 -800 8770 0
-8771 9677 0
-8771 812 0
-9677 -812 8771 0
-8772 9677 0
-8772 823 0
-9677 -823 8772 0
-8773 9677 0
-8773 833 0
-9677 -833 8773 0
-8774 9677 0
-8774 842 0
-9677 -842 8774 0
-8775 9677 0
-8775 850 0
-9677 -850 8775 0
-8776 9677 0
-8776 857 0
-9677 -857 8776 0
-8777 9677 0
-8777 863 0
-9677 -863 8777 0
-8778 9677 0
-8778 868 0
-9677 -868 8778 0
-8779 9677 0
-8779 873 0
-9677 -873 8779 0
-8780 9677 0
-8780 874 0
-9677 -874 8780 0
-8781 9677 0
-8781 875 0
-9677 -875 8781 0
-8782 9677 0
-8782 876 0
-9677 -876 8782 0
-8783 9678 0
-8783 689 0
-9678 -689 8783 0
-8784 9678 0
-8784 708 0
-9678 -708 8784 0
-8785 9678 0
-8785 726 0
-9678 -726 8785 0
-8786 9678 0
-8786 743 0
-9678 -743 8786 0
-8787 9678 0
-8787 759 0
-9678 -759 8787 0
-8788 9678 0
-8788 774 0
-9678 -774 8788 0
-8789 9678 0
-8789 788 0
-9678 -788 8789 0
-8790 9678 0
-8790 801 0
-9678 -801 8790 0
-8791 9678 0
-8791 813 0
-9678 -813 8791 0
-8792 9678 0
-8792 824 0
-9678 -824 8792 0
-8793 9678 0
-8793 834 0
-9678 -834 8793 0
-8794 9678 0
-8794 843 0
-9678 -843 8794 0
-8795 9678 0
-8795 851 0
-9678 -851 8795 0
-8796 9678 0
-8796 858 0
-9678 -858 8796 0
-8797 9678 0
-8797 864 0
-9678 -864 8797 0
-8798 9678 0
-8798 869 0
-9678 -869 8798 0
-8799 9678 0
-8799 873 0
-9678 -873 8799 0
-8800 9678 0
-8800 877 0
-9678 -877 8800 0
-8801 9678 0
-8801 878 0
-9678 -878 8801 0
-8802 9678 0
-8802 879 0
-9678 -879 8802 0
-8803 9679 0
-8803 690 0
-9679 -690 8803 0
-8804 9679 0
-8804 709 0
-9679 -709 8804 0
-8805 9679 0
-8805 727 0
-9679 -727 8805 0
-8806 9679 0
-8806 744 0
-9679 -744 8806 0
-8807 9679 0
-8807 760 0
-9679 -760 8807 0
-8808 9679 0
-8808 775 0
-9679 -775 8808 0
-8809 9679 0
-8809 789 0
-9679 -789 8809 0
-8810 9679 0
-8810 802 0
-9679 -802 8810 0
-8811 9679 0
-8811 814 0
-9679 -814 8811 0
-8812 9679 0
-8812 825 0
-9679 -825 8812 0
-8813 9679 0
-8813 835 0
-9679 -835 8813 0
-8814 9679 0
-8814 844 0
-9679 -844 8814 0
-8815 9679 0
-8815 852 0
-9679 -852 8815 0
-8816 9679 0
-8816 859 0
-9679 -859 8816 0
-8817 9679 0
-8817 865 0
-9679 -865 8817 0
-8818 9679 0
-8818 870 0
-9679 -870 8818 0
-8819 9679 0
-8819 874 0
-9679 -874 8819 0
-8820 9679 0
-8820 877 0
-9679 -877 8820 0
-8821 9679 0
-8821 880 0
-9679 -880 8821 0
-8822 9679 0
-8822 881 0
-9679 -881 8822 0
-8823 9680 0
-8823 691 0
-9680 -691 8823 0
-8824 9680 0
-8824 710 0
-9680 -710 8824 0
-8825 9680 0
-8825 728 0
-9680 -728 8825 0
-8826 9680 0
-8826 745 0
-9680 -745 8826 0
-8827 9680 0
-8827 761 0
-9680 -761 8827 0
-8828 9680 0
-8828 776 0
-9680 -776 8828 0
-8829 9680 0
-8829 790 0
-9680 -790 8829 0
-8830 9680 0
-8830 803 0
-9680 -803 8830 0
-8831 9680 0
-8831 815 0
-9680 -815 8831 0
-8832 9680 0
-8832 826 0
-9680 -826 8832 0
-8833 9680 0
-8833 836 0
-9680 -836 8833 0
-8834 9680 0
-8834 845 0
-9680 -845 8834 0
-8835 9680 0
-8835 853 0
-9680 -853 8835 0
-8836 9680 0
-8836 860 0
-9680 -860 8836 0
-8837 9680 0
-8837 866 0
-9680 -866 8837 0
-8838 9680 0
-8838 871 0
-9680 -871 8838 0
-8839 9680 0
-8839 875 0
-9680 -875 8839 0
-8840 9680 0
-8840 878 0
-9680 -878 8840 0
-8841 9680 0
-8841 880 0
-9680 -880 8841 0
-8842 9680 0
-8842 882 0
-9680 -882 8842 0
-8843 9681 0
-8843 692 0
-9681 -692 8843 0
-8844 9681 0
-8844 711 0
-9681 -711 8844 0
-8845 9681 0
-8845 729 0
-9681 -729 8845 0
-8846 9681 0
-8846 746 0
-9681 -746 8846 0
-8847 9681 0
-8847 762 0
-9681 -762 8847 0
-8848 9681 0
-8848 777 0
-9681 -777 8848 0
-8849 9681 0
-8849 791 0
-9681 -791 8849 0
-8850 9681 0
-8850 804 0
-9681 -804 8850 0
-8851 9681 0
-8851 816 0
-9681 -816 8851 0
-8852 9681 0
-8852 827 0
-9681 -827 8852 0
-8853 9681 0
-8853 837 0
-9681 -837 8853 0
-8854 9681 0
-8854 846 0
-9681 -846 8854 0
-8855 9681 0
-8855 854 0
-9681 -854 8855 0
-8856 9681 0
-8856 861 0
-9681 -861 8856 0
-8857 9681 0
-8857 867 0
-9681 -867 8857 0
-8858 9681 0
-8858 872 0
-9681 -872 8858 0
-8859 9681 0
-8859 876 0
-9681 -876 8859 0
-8860 9681 0
-8860 879 0
-9681 -879 8860 0
-8861 9681 0
-8861 881 0
-9681 -881 8861 0
-8862 9681 0
-8862 882 0
-9681 -882 8862 0
-8863 9682 0
-8863 673 0
-9682 -673 8863 0
-8864 9682 0
-8864 674 0
-9682 -674 8864 0
-8865 9682 0
-8865 675 0
-9682 -675 8865 0
-8866 9682 0
-8866 676 0
-9682 -676 8866 0
-8867 9682 0
-8867 677 0
-9682 -677 8867 0
-8868 9682 0
-8868 678 0
-9682 -678 8868 0
-8869 9682 0
-8869 679 0
-9682 -679 8869 0
-8870 9682 0
-8870 680 0
-9682 -680 8870 0
-8871 9682 0
-8871 681 0
-9682 -681 8871 0
-8872 9682 0
-8872 682 0
-9682 -682 8872 0
-8873 9682 0
-8873 683 0
-9682 -683 8873 0
-8874 9682 0
-8874 684 0
-9682 -684 8874 0
-8875 9682 0
-8875 685 0
-9682 -685 8875 0
-8876 9682 0
-8876 686 0
-9682 -686 8876 0
-8877 9682 0
-8877 687 0
-9682 -687 8877 0
-8878 9682 0
-8878 688 0
-9682 -688 8878 0
-8879 9682 0
-8879 689 0
-9682 -689 8879 0
-8880 9682 0
-8880 690 0
-9682 -690 8880 0
-8881 9682 0
-8881 691 0
-9682 -691 8881 0
-8882 9682 0
-8882 692 0
-9682 -692 8882 0
-8883 9683 0
-8883 673 0
-9683 -673 8883 0
-8884 9683 0
-8884 693 0
-9683 -693 8884 0
-8885 9683 0
-8885 694 0
-9683 -694 8885 0
-8886 9683 0
-8886 695 0
-9683 -695 8886 0
-8887 9683 0
-8887 696 0
-9683 -696 8887 0
-8888 9683 0
-8888 697 0
-9683 -697 8888 0
-8889 9683 0
-8889 698 0
-9683 -698 8889 0
-8890 9683 0
-8890 699 0
-9683 -699 8890 0
-8891 9683 0
-8891 700 0
-9683 -700 8891 0
-8892 9683 0
-8892 701 0
-9683 -701 8892 0
-8893 9683 0
-8893 702 0
-9683 -702 8893 0
-8894 9683 0
-8894 703 0
-9683 -703 8894 0
-8895 9683 0
-8895 704 0
-9683 -704 8895 0
-8896 9683 0
-8896 705 0
-9683 -705 8896 0
-8897 9683 0
-8897 706 0
-9683 -706 8897 0
-8898 9683 0
-8898 707 0
-9683 -707 8898 0
-8899 9683 0
-8899 708 0
-9683 -708 8899 0
-8900 9683 0
-8900 709 0
-9683 -709 8900 0
-8901 9683 0
-8901 710 0
-9683 -710 8901 0
-8902 9683 0
-8902 711 0
-9683 -711 8902 0
-8903 9684 0
-8903 674 0
-9684 -674 8903 0
-8904 9684 0
-8904 693 0
-9684 -693 8904 0
-8905 9684 0
-8905 712 0
-9684 -712 8905 0
-8906 9684 0
-8906 713 0
-9684 -713 8906 0
-8907 9684 0
-8907 714 0
-9684 -714 8907 0
-8908 9684 0
-8908 715 0
-9684 -715 8908 0
-8909 9684 0
-8909 716 0
-9684 -716 8909 0
-8910 9684 0
-8910 717 0
-9684 -717 8910 0
-8911 9684 0
-8911 718 0
-9684 -718 8911 0
-8912 9684 0
-8912 719 0
-9684 -719 8912 0
-8913 9684 0
-8913 720 0
-9684 -720 8913 0
-8914 9684 0
-8914 721 0
-9684 -721 8914 0
-8915 9684 0
-8915 722 0
-9684 -722 8915 0
-8916 9684 0
-8916 723 0
-9684 -723 8916 0
-8917 9684 0
-8917 724 0
-9684 -724 8917 0
-8918 9684 0
-8918 725 0
-9684 -725 8918 0
-8919 9684 0
-8919 726 0
-9684 -726 8919 0
-8920 9684 0
-8920 727 0
-9684 -727 8920 0
-8921 9684 0
-8921 728 0
-9684 -728 8921 0
-8922 9684 0
-8922 729 0
-9684 -729 8922 0
-8923 9685 0
-8923 675 0
-9685 -675 8923 0
-8924 9685 0
-8924 694 0
-9685 -694 8924 0
-8925 9685 0
-8925 712 0
-9685 -712 8925 0
-8926 9685 0
-8926 730 0
-9685 -730 8926 0
-8927 9685 0
-8927 731 0
-9685 -731 8927 0
-8928 9685 0
-8928 732 0
-9685 -732 8928 0
-8929 9685 0
-8929 733 0
-9685 -733 8929 0
-8930 9685 0
-8930 734 0
-9685 -734 8930 0
-8931 9685 0
-8931 735 0
-9685 -735 8931 0
-8932 9685 0
-8932 736 0
-9685 -736 8932 0
-8933 9685 0
-8933 737 0
-9685 -737 8933 0
-8934 9685 0
-8934 738 0
-9685 -738 8934 0
-8935 9685 0
-8935 739 0
-9685 -739 8935 0
-8936 9685 0
-8936 740 0
-9685 -740 8936 0
-8937 9685 0
-8937 741 0
-9685 -741 8937 0
-8938 9685 0
-8938 742 0
-9685 -742 8938 0
-8939 9685 0
-8939 743 0
-9685 -743 8939 0
-8940 9685 0
-8940 744 0
-9685 -744 8940 0
-8941 9685 0
-8941 745 0
-9685 -745 8941 0
-8942 9685 0
-8942 746 0
-9685 -746 8942 0
-8943 9686 0
-8943 676 0
-9686 -676 8943 0
-8944 9686 0
-8944 695 0
-9686 -695 8944 0
-8945 9686 0
-8945 713 0
-9686 -713 8945 0
-8946 9686 0
-8946 730 0
-9686 -730 8946 0
-8947 9686 0
-8947 747 0
-9686 -747 8947 0
-8948 9686 0
-8948 748 0
-9686 -748 8948 0
-8949 9686 0
-8949 749 0
-9686 -749 8949 0
-8950 9686 0
-8950 750 0
-9686 -750 8950 0
-8951 9686 0
-8951 751 0
-9686 -751 8951 0
-8952 9686 0
-8952 752 0
-9686 -752 8952 0
-8953 9686 0
-8953 753 0
-9686 -753 8953 0
-8954 9686 0
-8954 754 0
-9686 -754 8954 0
-8955 9686 0
-8955 755 0
-9686 -755 8955 0
-8956 9686 0
-8956 756 0
-9686 -756 8956 0
-8957 9686 0
-8957 757 0
-9686 -757 8957 0
-8958 9686 0
-8958 758 0
-9686 -758 8958 0
-8959 9686 0
-8959 759 0
-9686 -759 8959 0
-8960 9686 0
-8960 760 0
-9686 -760 8960 0
-8961 9686 0
-8961 761 0
-9686 -761 8961 0
-8962 9686 0
-8962 762 0
-9686 -762 8962 0
-8963 9687 0
-8963 677 0
-9687 -677 8963 0
-8964 9687 0
-8964 696 0
-9687 -696 8964 0
-8965 9687 0
-8965 714 0
-9687 -714 8965 0
-8966 9687 0
-8966 731 0
-9687 -731 8966 0
-8967 9687 0
-8967 747 0
-9687 -747 8967 0
-8968 9687 0
-8968 763 0
-9687 -763 8968 0
-8969 9687 0
-8969 764 0
-9687 -764 8969 0
-8970 9687 0
-8970 765 0
-9687 -765 8970 0
-8971 9687 0
-8971 766 0
-9687 -766 8971 0
-8972 9687 0
-8972 767 0
-9687 -767 8972 0
-8973 9687 0
-8973 768 0
-9687 -768 8973 0
-8974 9687 0
-8974 769 0
-9687 -769 8974 0
-8975 9687 0
-8975 770 0
-9687 -770 8975 0
-8976 9687 0
-8976 771 0
-9687 -771 8976 0
-8977 9687 0
-8977 772 0
-9687 -772 8977 0
-8978 9687 0
-8978 773 0
-9687 -773 8978 0
-8979 9687 0
-8979 774 0
-9687 -774 8979 0
-8980 9687 0
-8980 775 0
-9687 -775 8980 0
-8981 9687 0
-8981 776 0
-9687 -776 8981 0
-8982 9687 0
-8982 777 0
-9687 -777 8982 0
-8983 9688 0
-8983 678 0
-9688 -678 8983 0
-8984 9688 0
-8984 697 0
-9688 -697 8984 0
-8985 9688 0
-8985 715 0
-9688 -715 8985 0
-8986 9688 0
-8986 732 0
-9688 -732 8986 0
-8987 9688 0
-8987 748 0
-9688 -748 8987 0
-8988 9688 0
-8988 763 0
-9688 -763 8988 0
-8989 9688 0
-8989 778 0
-9688 -778 8989 0
-8990 9688 0
-8990 779 0
-9688 -779 8990 0
-8991 9688 0
-8991 780 0
-9688 -780 8991 0
-8992 9688 0
-8992 781 0
-9688 -781 8992 0
-8993 9688 0
-8993 782 0
-9688 -782 8993 0
-8994 9688 0
-8994 783 0
-9688 -783 8994 0
-8995 9688 0
-8995 784 0
-9688 -784 8995 0
-8996 9688 0
-8996 785 0
-9688 -785 8996 0
-8997 9688 0
-8997 786 0
-9688 -786 8997 0
-8998 9688 0
-8998 787 0
-9688 -787 8998 0
-8999 9688 0
-8999 788 0
-9688 -788 8999 0
-9000 9688 0
-9000 789 0
-9688 -789 9000 0
-9001 9688 0
-9001 790 0
-9688 -790 9001 0
-9002 9688 0
-9002 791 0
-9688 -791 9002 0
-9003 9689 0
-9003 679 0
-9689 -679 9003 0
-9004 9689 0
-9004 698 0
-9689 -698 9004 0
-9005 9689 0
-9005 716 0
-9689 -716 9005 0
-9006 9689 0
-9006 733 0
-9689 -733 9006 0
-9007 9689 0
-9007 749 0
-9689 -749 9007 0
-9008 9689 0
-9008 764 0
-9689 -764 9008 0
-9009 9689 0
-9009 778 0
-9689 -778 9009 0
-9010 9689 0
-9010 792 0
-9689 -792 9010 0
-9011 9689 0
-9011 793 0
-9689 -793 9011 0
-9012 9689 0
-9012 794 0
-9689 -794 9012 0
-9013 9689 0
-9013 795 0
-9689 -795 9013 0
-9014 9689 0
-9014 796 0
-9689 -796 9014 0
-9015 9689 0
-9015 797 0
-9689 -797 9015 0
-9016 9689 0
-9016 798 0
-9689 -798 9016 0
-9017 9689 0
-9017 799 0
-9689 -799 9017 0
-9018 9689 0
-9018 800 0
-9689 -800 9018 0
-9019 9689 0
-9019 801 0
-9689 -801 9019 0
-9020 9689 0
-9020 802 0
-9689 -802 9020 0
-9021 9689 0
-9021 803 0
-9689 -803 9021 0
-9022 9689 0
-9022 804 0
-9689 -804 9022 0
-9023 9690 0
-9023 680 0
-9690 -680 9023 0
-9024 9690 0
-9024 699 0
-9690 -699 9024 0
-9025 9690 0
-9025 717 0
-9690 -717 9025 0
-9026 9690 0
-9026 734 0
-9690 -734 9026 0
-9027 9690 0
-9027 750 0
-9690 -750 9027 0
-9028 9690 0
-9028 765 0
-9690 -765 9028 0
-9029 9690 0
-9029 779 0
-9690 -779 9029 0
-9030 9690 0
-9030 792 0
-9690 -792 9030 0
-9031 9690 0
-9031 805 0
-9690 -805 9031 0
-9032 9690 0
-9032 806 0
-9690 -806 9032 0
-9033 9690 0
-9033 807 0
-9690 -807 9033 0
-9034 9690 0
-9034 808 0
-9690 -808 9034 0
-9035 9690 0
-9035 809 0
-9690 -809 9035 0
-9036 9690 0
-9036 810 0
-9690 -810 9036 0
-9037 9690 0
-9037 811 0
-9690 -811 9037 0
-9038 9690 0
-9038 812 0
-9690 -812 9038 0
-9039 9690 0
-9039 813 0
-9690 -813 9039 0
-9040 9690 0
-9040 814 0
-9690 -814 9040 0
-9041 9690 0
-9041 815 0
-9690 -815 9041 0
-9042 9690 0
-9042 816 0
-9690 -816 9042 0
-9043 9691 0
-9043 681 0
-9691 -681 9043 0
-9044 9691 0
-9044 700 0
-9691 -700 9044 0
-9045 9691 0
-9045 718 0
-9691 -718 9045 0
-9046 9691 0
-9046 735 0
-9691 -735 9046 0
-9047 9691 0
-9047 751 0
-9691 -751 9047 0
-9048 9691 0
-9048 766 0
-9691 -766 9048 0
-9049 9691 0
-9049 780 0
-9691 -780 9049 0
-9050 9691 0
-9050 793 0
-9691 -793 9050 0
-9051 9691 0
-9051 805 0
-9691 -805 9051 0
-9052 9691 0
-9052 817 0
-9691 -817 9052 0
-9053 9691 0
-9053 818 0
-9691 -818 9053 0
-9054 9691 0
-9054 819 0
-9691 -819 9054 0
-9055 9691 0
-9055 820 0
-9691 -820 9055 0
-9056 9691 0
-9056 821 0
-9691 -821 9056 0
-9057 9691 0
-9057 822 0
-9691 -822 9057 0
-9058 9691 0
-9058 823 0
-9691 -823 9058 0
-9059 9691 0
-9059 824 0
-9691 -824 9059 0
-9060 9691 0
-9060 825 0
-9691 -825 9060 0
-9061 9691 0
-9061 826 0
-9691 -826 9061 0
-9062 9691 0
-9062 827 0
-9691 -827 9062 0
-9063 9692 0
-9063 682 0
-9692 -682 9063 0
-9064 9692 0
-9064 701 0
-9692 -701 9064 0
-9065 9692 0
-9065 719 0
-9692 -719 9065 0
-9066 9692 0
-9066 736 0
-9692 -736 9066 0
-9067 9692 0
-9067 752 0
-9692 -752 9067 0
-9068 9692 0
-9068 767 0
-9692 -767 9068 0
-9069 9692 0
-9069 781 0
-9692 -781 9069 0
-9070 9692 0
-9070 794 0
-9692 -794 9070 0
-9071 9692 0
-9071 806 0
-9692 -806 9071 0
-9072 9692 0
-9072 817 0
-9692 -817 9072 0
-9073 9692 0
-9073 828 0
-9692 -828 9073 0
-9074 9692 0
-9074 829 0
-9692 -829 9074 0
-9075 9692 0
-9075 830 0
-9692 -830 9075 0
-9076 9692 0
-9076 831 0
-9692 -831 9076 0
-9077 9692 0
-9077 832 0
-9692 -832 9077 0
-9078 9692 0
-9078 833 0
-9692 -833 9078 0
-9079 9692 0
-9079 834 0
-9692 -834 9079 0
-9080 9692 0
-9080 835 0
-9692 -835 9080 0
-9081 9692 0
-9081 836 0
-9692 -836 9081 0
-9082 9692 0
-9082 837 0
-9692 -837 9082 0
-9083 9693 0
-9083 683 0
-9693 -683 9083 0
-9084 9693 0
-9084 702 0
-9693 -702 9084 0
-9085 9693 0
-9085 720 0
-9693 -720 9085 0
-9086 9693 0
-9086 737 0
-9693 -737 9086 0
-9087 9693 0
-9087 753 0
-9693 -753 9087 0
-9088 9693 0
-9088 768 0
-9693 -768 9088 0
-9089 9693 0
-9089 782 0
-9693 -782 9089 0
-9090 9693 0
-9090 795 0
-9693 -795 9090 0
-9091 9693 0
-9091 807 0
-9693 -807 9091 0
-9092 9693 0
-9092 818 0
-9693 -818 9092 0
-9093 9693 0
-9093 828 0
-9693 -828 9093 0
-9094 9693 0
-9094 838 0
-9693 -838 9094 0
-9095 9693 0
-9095 839 0
-9693 -839 9095 0
-9096 9693 0
-9096 840 0
-9693 -840 9096 0
-9097 9693 0
-9097 841 0
-9693 -841 9097 0
-9098 9693 0
-9098 842 0
-9693 -842 9098 0
-9099 9693 0
-9099 843 0
-9693 -843 9099 0
-9100 9693 0
-9100 844 0
-9693 -844 9100 0
-9101 9693 0
-9101 845 0
-9693 -845 9101 0
-9102 9693 0
-9102 846 0
-9693 -846 9102 0
-9103 9694 0
-9103 684 0
-9694 -684 9103 0
-9104 9694 0
-9104 703 0
-9694 -703 9104 0
-9105 9694 0
-9105 721 0
-9694 -721 9105 0
-9106 9694 0
-9106 738 0
-9694 -738 9106 0
-9107 9694 0
-9107 754 0
-9694 -754 9107 0
-9108 9694 0
-9108 769 0
-9694 -769 9108 0
-9109 9694 0
-9109 783 0
-9694 -783 9109 0
-9110 9694 0
-9110 796 0
-9694 -796 9110 0
-9111 9694 0
-9111 808 0
-9694 -808 9111 0
-9112 9694 0
-9112 819 0
-9694 -819 9112 0
-9113 9694 0
-9113 829 0
-9694 -829 9113 0
-9114 9694 0
-9114 838 0
-9694 -838 9114 0
-9115 9694 0
-9115 847 0
-9694 -847 9115 0
-9116 9694 0
-9116 848 0
-9694 -848 9116 0
-9117 9694 0
-9117 849 0
-9694 -849 9117 0
-9118 9694 0
-9118 850 0
-9694 -850 9118 0
-9119 9694 0
-9119 851 0
-9694 -851 9119 0
-9120 9694 0
-9120 852 0
-9694 -852 9120 0
-9121 9694 0
-9121 853 0
-9694 -853 9121 0
-9122 9694 0
-9122 854 0
-9694 -854 9122 0
-9123 9695 0
-9123 685 0
-9695 -685 9123 0
-9124 9695 0
-9124 704 0
-9695 -704 9124 0
-9125 9695 0
-9125 722 0
-9695 -722 9125 0
-9126 9695 0
-9126 739 0
-9695 -739 9126 0
-9127 9695 0
-9127 755 0
-9695 -755 9127 0
-9128 9695 0
-9128 770 0
-9695 -770 9128 0
-9129 9695 0
-9129 784 0
-9695 -784 9129 0
-9130 9695 0
-9130 797 0
-9695 -797 9130 0
-9131 9695 0
-9131 809 0
-9695 -809 9131 0
-9132 9695 0
-9132 820 0
-9695 -820 9132 0
-9133 9695 0
-9133 830 0
-9695 -830 9133 0
-9134 9695 0
-9134 839 0
-9695 -839 9134 0
-9135 9695 0
-9135 847 0
-9695 -847 9135 0
-9136 9695 0
-9136 855 0
-9695 -855 9136 0
-9137 9695 0
-9137 856 0
-9695 -856 9137 0
-9138 9695 0
-9138 857 0
-9695 -857 9138 0
-9139 9695 0
-9139 858 0
-9695 -858 9139 0
-9140 9695 0
-9140 859 0
-9695 -859 9140 0
-9141 9695 0
-9141 860 0
-9695 -860 9141 0
-9142 9695 0
-9142 861 0
-9695 -861 9142 0
-9143 9696 0
-9143 686 0
-9696 -686 9143 0
-9144 9696 0
-9144 705 0
-9696 -705 9144 0
-9145 9696 0
-9145 723 0
-9696 -723 9145 0
-9146 9696 0
-9146 740 0
-9696 -740 9146 0
-9147 9696 0
-9147 756 0
-9696 -756 9147 0
-9148 9696 0
-9148 771 0
-9696 -771 9148 0
-9149 9696 0
-9149 785 0
-9696 -785 9149 0
-9150 9696 0
-9150 798 0
-9696 -798 9150 0
-9151 9696 0
-9151 810 0
-9696 -810 9151 0
-9152 9696 0
-9152 821 0
-9696 -821 9152 0
-9153 9696 0
-9153 831 0
-9696 -831 9153 0
-9154 9696 0
-9154 840 0
-9696 -840 9154 0
-9155 9696 0
-9155 848 0
-9696 -848 9155 0
-9156 9696 0
-9156 855 0
-9696 -855 9156 0
-9157 9696 0
-9157 862 0
-9696 -862 9157 0
-9158 9696 0
-9158 863 0
-9696 -863 9158 0
-9159 9696 0
-9159 864 0
-9696 -864 9159 0
-9160 9696 0
-9160 865 0
-9696 -865 9160 0
-9161 9696 0
-9161 866 0
-9696 -866 9161 0
-9162 9696 0
-9162 867 0
-9696 -867 9162 0
-9163 9697 0
-9163 687 0
-9697 -687 9163 0
-9164 9697 0
-9164 706 0
-9697 -706 9164 0
-9165 9697 0
-9165 724 0
-9697 -724 9165 0
-9166 9697 0
-9166 741 0
-9697 -741 9166 0
-9167 9697 0
-9167 757 0
-9697 -757 9167 0
-9168 9697 0
-9168 772 0
-9697 -772 9168 0
-9169 9697 0
-9169 786 0
-9697 -786 9169 0
-9170 9697 0
-9170 799 0
-9697 -799 9170 0
-9171 9697 0
-9171 811 0
-9697 -811 9171 0
-9172 9697 0
-9172 822 0
-9697 -822 9172 0
-9173 9697 0
-9173 832 0
-9697 -832 9173 0
-9174 9697 0
-9174 841 0
-9697 -841 9174 0
-9175 9697 0
-9175 849 0
-9697 -849 9175 0
-9176 9697 0
-9176 856 0
-9697 -856 9176 0
-9177 9697 0
-9177 862 0
-9697 -862 9177 0
-9178 9697 0
-9178 868 0
-9697 -868 9178 0
-9179 9697 0
-9179 869 0
-9697 -869 9179 0
-9180 9697 0
-9180 870 0
-9697 -870 9180 0
-9181 9697 0
-9181 871 0
-9697 -871 9181 0
-9182 9697 0
-9182 872 0
-9697 -872 9182 0
-9183 9698 0
-9183 688 0
-9698 -688 9183 0
-9184 9698 0
-9184 707 0
-9698 -707 9184 0
-9185 9698 0
-9185 725 0
-9698 -725 9185 0
-9186 9698 0
-9186 742 0
-9698 -742 9186 0
-9187 9698 0
-9187 758 0
-9698 -758 9187 0
-9188 9698 0
-9188 773 0
-9698 -773 9188 0
-9189 9698 0
-9189 787 0
-9698 -787 9189 0
-9190 9698 0
-9190 800 0
-9698 -800 9190 0
-9191 9698 0
-9191 812 0
-9698 -812 9191 0
-9192 9698 0
-9192 823 0
-9698 -823 9192 0
-9193 9698 0
-9193 833 0
-9698 -833 9193 0
-9194 9698 0
-9194 842 0
-9698 -842 9194 0
-9195 9698 0
-9195 850 0
-9698 -850 9195 0
-9196 9698 0
-9196 857 0
-9698 -857 9196 0
-9197 9698 0
-9197 863 0
-9698 -863 9197 0
-9198 9698 0
-9198 868 0
-9698 -868 9198 0
-9199 9698 0
-9199 873 0
-9698 -873 9199 0
-9200 9698 0
-9200 874 0
-9698 -874 9200 0
-9201 9698 0
-9201 875 0
-9698 -875 9201 0
-9202 9698 0
-9202 876 0
-9698 -876 9202 0
-9203 9699 0
-9203 689 0
-9699 -689 9203 0
-9204 9699 0
-9204 708 0
-9699 -708 9204 0
-9205 9699 0
-9205 726 0
-9699 -726 9205 0
-9206 9699 0
-9206 743 0
-9699 -743 9206 0
-9207 9699 0
-9207 759 0
-9699 -759 9207 0
-9208 9699 0
-9208 774 0
-9699 -774 9208 0
-9209 9699 0
-9209 788 0
-9699 -788 9209 0
-9210 9699 0
-9210 801 0
-9699 -801 9210 0
-9211 9699 0
-9211 813 0
-9699 -813 9211 0
-9212 9699 0
-9212 824 0
-9699 -824 9212 0
-9213 9699 0
-9213 834 0
-9699 -834 9213 0
-9214 9699 0
-9214 843 0
-9699 -843 9214 0
-9215 9699 0
-9215 851 0
-9699 -851 9215 0
-9216 9699 0
-9216 858 0
-9699 -858 9216 0
-9217 9699 0
-9217 864 0
-9699 -864 9217 0
-9218 9699 0
-9218 869 0
-9699 -869 9218 0
-9219 9699 0
-9219 873 0
-9699 -873 9219 0
-9220 9699 0
-9220 877 0
-9699 -877 9220 0
-9221 9699 0
-9221 878 0
-9699 -878 9221 0
-9222 9699 0
-9222 879 0
-9699 -879 9222 0
-9223 9700 0
-9223 690 0
-9700 -690 9223 0
-9224 9700 0
-9224 709 0
-9700 -709 9224 0
-9225 9700 0
-9225 727 0
-9700 -727 9225 0
-9226 9700 0
-9226 744 0
-9700 -744 9226 0
-9227 9700 0
-9227 760 0
-9700 -760 9227 0
-9228 9700 0
-9228 775 0
-9700 -775 9228 0
-9229 9700 0
-9229 789 0
-9700 -789 9229 0
-9230 9700 0
-9230 802 0
-9700 -802 9230 0
-9231 9700 0
-9231 814 0
-9700 -814 9231 0
-9232 9700 0
-9232 825 0
-9700 -825 9232 0
-9233 9700 0
-9233 835 0
-9700 -835 9233 0
-9234 9700 0
-9234 844 0
-9700 -844 9234 0
-9235 9700 0
-9235 852 0
-9700 -852 9235 0
-9236 9700 0
-9236 859 0
-9700 -859 9236 0
-9237 9700 0
-9237 865 0
-9700 -865 9237 0
-9238 9700 0
-9238 870 0
-9700 -870 9238 0
-9239 9700 0
-9239 874 0
-9700 -874 9239 0
-9240 9700 0
-9240 877 0
-9700 -877 9240 0
-9241 9700 0
-9241 880 0
-9700 -880 9241 0
-9242 9700 0
-9242 881 0
-9700 -881 9242 0
-9243 9701 0
-9243 691 0
-9701 -691 9243 0
-9244 9701 0
-9244 710 0
-9701 -710 9244 0
-9245 9701 0
-9245 728 0
-9701 -728 9245 0
-9246 9701 0
-9246 745 0
-9701 -745 9246 0
-9247 9701 0
-9247 761 0
-9701 -761 9247 0
-9248 9701 0
-9248 776 0
-9701 -776 9248 0
-9249 9701 0
-9249 790 0
-9701 -790 9249 0
-9250 9701 0
-9250 803 0
-9701 -803 9250 0
-9251 9701 0
-9251 815 0
-9701 -815 9251 0
-9252 9701 0
-9252 826 0
-9701 -826 9252 0
-9253 9701 0
-9253 836 0
-9701 -836 9253 0
-9254 9701 0
-9254 845 0
-9701 -845 9254 0
-9255 9701 0
-9255 853 0
-9701 -853 9255 0
-9256 9701 0
-9256 860 0
-9701 -860 9256 0
-9257 9701 0
-9257 866 0
-9701 -866 9257 0
-9258 9701 0
-9258 871 0
-9701 -871 9258 0
-9259 9701 0
-9259 875 0
-9701 -875 9259 0
-9260 9701 0
-9260 878 0
-9701 -878 9260 0
-9261 9701 0
-9261 880 0
-9701 -880 9261 0
-9262 9701 0
-9262 882 0
-9701 -882 9262 0
-9263 9702 0
-9263 692 0
-9702 -692 9263 0
-9264 9702 0
-9264 711 0
-9702 -711 9264 0
-9265 9702 0
-9265 729 0
-9702 -729 9265 0
-9266 9702 0
-9266 746 0
-9702 -746 9266 0
-9267 9702 0
-9267 762 0
-9702 -762 9267 0
-9268 9702 0
-9268 777 0
-9702 -777 9268 0
-9269 9702 0
-9269 791 0
-9702 -791 9269 0
-9270 9702 0
-9270 804 0
-9702 -804 9270 0
-9271 9702 0
-9271 816 0
-9702 -816 9271 0
-9272 9702 0
-9272 827 0
-9702 -827 9272 0
-9273 9702 0
-9273 837 0
-9702 -837 9273 0
-9274 9702 0
-9274 846 0
-9702 -846 9274 0
-9275 9702 0
-9275 854 0
-9702 -854 9275 0
-9276 9702 0
-9276 861 0
-9702 -861 9276 0
-9277 9702 0
-9277 867 0
-9702 -867 9277 0
-9278 9702 0
-9278 872 0
-9702 -872 9278 0
-9279 9702 0
-9279 876 0
-9702 -876 9279 0
-9280 9702 0
-9280 879 0
-9702 -879 9280 0
-9281 9702 0
-9281 881 0
-9702 -881 9281 0
-9282 9702 0
-9282 882 0
-9702 -882 9282 0
-9283 9304 0
-903 9304 0
-923 9304 0
-943 9304 0
-963 9304 0
-983 9304 0
-1003 9304 0
-1023 9304 0
-1043 9304 0
-1063 9304 0
-1083 9304 0
-1103 9304 0
-1123 9304 0
-1143 9304 0
-1163 9304 0
-1183 9304 0
-1203 9304 0
-1223 9304 0
-1243 9304 0
-1263 9304 0
-1283 9304 0
-9304 9283 903 923 943 963 983 1003 1023 1043 1063 1083 1103 1123 1143 1163 1183 1203 1223 1243 1263 1283 0
-9284 9305 0
-883 9305 0
-924 9305 0
-944 9305 0
-964 9305 0
-984 9305 0
-1004 9305 0
-1024 9305 0
-1044 9305 0
-1064 9305 0
-1084 9305 0
-1104 9305 0
-1124 9305 0
-1144 9305 0
-1164 9305 0
-1184 9305 0
-1204 9305 0
-1224 9305 0
-1244 9305 0
-1264 9305 0
-1284 9305 0
-9305 9284 883 924 944 964 984 1004 1024 1044 1064 1084 1104 1124 1144 1164 1184 1204 1224 1244 1264 1284 0
-9285 9306 0
-884 9306 0
-904 9306 0
-945 9306 0
-965 9306 0
-985 9306 0
-1005 9306 0
-1025 9306 0
-1045 9306 0
-1065 9306 0
-1085 9306 0
-1105 9306 0
-1125 9306 0
-1145 9306 0
-1165 9306 0
-1185 9306 0
-1205 9306 0
-1225 9306 0
-1245 9306 0
-1265 9306 0
-1285 9306 0
-9306 9285 884 904 945 965 985 1005 1025 1045 1065 1085 1105 1125 1145 1165 1185 1205 1225 1245 1265 1285 0
-9286 9307 0
-885 9307 0
-905 9307 0
-925 9307 0
-966 9307 0
-986 9307 0
-1006 9307 0
-1026 9307 0
-1046 9307 0
-1066 9307 0
-1086 9307 0
-1106 9307 0
-1126 9307 0
-1146 9307 0
-1166 9307 0
-1186 9307 0
-1206 9307 0
-1226 9307 0
-1246 9307 0
-1266 9307 0
-1286 9307 0
-9307 9286 885 905 925 966 986 1006 1026 1046 1066 1086 1106 1126 1146 1166 1186 1206 1226 1246 1266 1286 0
-9287 9308 0
-886 9308 0
-906 9308 0
-926 9308 0
-946 9308 0
-987 9308 0
-1007 9308 0
-1027 9308 0
-1047 9308 0
-1067 9308 0
-1087 9308 0
-1107 9308 0
-1127 9308 0
-1147 9308 0
-1167 9308 0
-1187 9308 0
-1207 9308 0
-1227 9308 0
-1247 9308 0
-1267 9308 0
-1287 9308 0
-9308 9287 886 906 926 946 987 1007 1027 1047 1067 1087 1107 1127 1147 1167 1187 1207 1227 1247 1267 1287 0
-9288 9309 0
-887 9309 0
-907 9309 0
-927 9309 0
-947 9309 0
-967 9309 0
-1008 9309 0
-1028 9309 0
-1048 9309 0
-1068 9309 0
-1088 9309 0
-1108 9309 0
-1128 9309 0
-1148 9309 0
-1168 9309 0
-1188 9309 0
-1208 9309 0
-1228 9309 0
-1248 9309 0
-1268 9309 0
-1288 9309 0
-9309 9288 887 907 927 947 967 1008 1028 1048 1068 1088 1108 1128 1148 1168 1188 1208 1228 1248 1268 1288 0
-9289 9310 0
-888 9310 0
-908 9310 0
-928 9310 0
-948 9310 0
-968 9310 0
-988 9310 0
-1029 9310 0
-1049 9310 0
-1069 9310 0
-1089 9310 0
-1109 9310 0
-1129 9310 0
-1149 9310 0
-1169 9310 0
-1189 9310 0
-1209 9310 0
-1229 9310 0
-1249 9310 0
-1269 9310 0
-1289 9310 0
-9310 9289 888 908 928 948 968 988 1029 1049 1069 1089 1109 1129 1149 1169 1189 1209 1229 1249 1269 1289 0
-9290 9311 0
-889 9311 0
-909 9311 0
-929 9311 0
-949 9311 0
-969 9311 0
-989 9311 0
-1009 9311 0
-1050 9311 0
-1070 9311 0
-1090 9311 0
-1110 9311 0
-1130 9311 0
-1150 9311 0
-1170 9311 0
-1190 9311 0
-1210 9311 0
-1230 9311 0
-1250 9311 0
-1270 9311 0
-1290 9311 0
-9311 9290 889 909 929 949 969 989 1009 1050 1070 1090 1110 1130 1150 1170 1190 1210 1230 1250 1270 1290 0
-9291 9312 0
-890 9312 0
-910 9312 0
-930 9312 0
-950 9312 0
-970 9312 0
-990 9312 0
-1010 9312 0
-1030 9312 0
-1071 9312 0
-1091 9312 0
-1111 9312 0
-1131 9312 0
-1151 9312 0
-1171 9312 0
-1191 9312 0
-1211 9312 0
-1231 9312 0
-1251 9312 0
-1271 9312 0
-1291 9312 0
-9312 9291 890 910 930 950 970 990 1010 1030 1071 1091 1111 1131 1151 1171 1191 1211 1231 1251 1271 1291 0
-9292 9313 0
-891 9313 0
-911 9313 0
-931 9313 0
-951 9313 0
-971 9313 0
-991 9313 0
-1011 9313 0
-1031 9313 0
-1051 9313 0
-1092 9313 0
-1112 9313 0
-1132 9313 0
-1152 9313 0
-1172 9313 0
-1192 9313 0
-1212 9313 0
-1232 9313 0
-1252 9313 0
-1272 9313 0
-1292 9313 0
-9313 9292 891 911 931 951 971 991 1011 1031 1051 1092 1112 1132 1152 1172 1192 1212 1232 1252 1272 1292 0
-9293 9314 0
-892 9314 0
-912 9314 0
-932 9314 0
-952 9314 0
-972 9314 0
-992 9314 0
-1012 9314 0
-1032 9314 0
-1052 9314 0
-1072 9314 0
-1113 9314 0
-1133 9314 0
-1153 9314 0
-1173 9314 0
-1193 9314 0
-1213 9314 0
-1233 9314 0
-1253 9314 0
-1273 9314 0
-1293 9314 0
-9314 9293 892 912 932 952 972 992 1012 1032 1052 1072 1113 1133 1153 1173 1193 1213 1233 1253 1273 1293 0
-9294 9315 0
-893 9315 0
-913 9315 0
-933 9315 0
-953 9315 0
-973 9315 0
-993 9315 0
-1013 9315 0
-1033 9315 0
-1053 9315 0
-1073 9315 0
-1093 9315 0
-1134 9315 0
-1154 9315 0
-1174 9315 0
-1194 9315 0
-1214 9315 0
-1234 9315 0
-1254 9315 0
-1274 9315 0
-1294 9315 0
-9315 9294 893 913 933 953 973 993 1013 1033 1053 1073 1093 1134 1154 1174 1194 1214 1234 1254 1274 1294 0
-9295 9316 0
-894 9316 0
-914 9316 0
-934 9316 0
-954 9316 0
-974 9316 0
-994 9316 0
-1014 9316 0
-1034 9316 0
-1054 9316 0
-1074 9316 0
-1094 9316 0
-1114 9316 0
-1155 9316 0
-1175 9316 0
-1195 9316 0
-1215 9316 0
-1235 9316 0
-1255 9316 0
-1275 9316 0
-1295 9316 0
-9316 9295 894 914 934 954 974 994 1014 1034 1054 1074 1094 1114 1155 1175 1195 1215 1235 1255 1275 1295 0
-9296 9317 0
-895 9317 0
-915 9317 0
-935 9317 0
-955 9317 0
-975 9317 0
-995 9317 0
-1015 9317 0
-1035 9317 0
-1055 9317 0
-1075 9317 0
-1095 9317 0
-1115 9317 0
-1135 9317 0
-1176 9317 0
-1196 9317 0
-1216 9317 0
-1236 9317 0
-1256 9317 0
-1276 9317 0
-1296 9317 0
-9317 9296 895 915 935 955 975 995 1015 1035 1055 1075 1095 1115 1135 1176 1196 1216 1236 1256 1276 1296 0
-9297 9318 0
-896 9318 0
-916 9318 0
-936 9318 0
-956 9318 0
-976 9318 0
-996 9318 0
-1016 9318 0
-1036 9318 0
-1056 9318 0
-1076 9318 0
-1096 9318 0
-1116 9318 0
-1136 9318 0
-1156 9318 0
-1197 9318 0
-1217 9318 0
-1237 9318 0
-1257 9318 0
-1277 9318 0
-1297 9318 0
-9318 9297 896 916 936 956 976 996 1016 1036 1056 1076 1096 1116 1136 1156 1197 1217 1237 1257 1277 1297 0
-9298 9319 0
-897 9319 0
-917 9319 0
-937 9319 0
-957 9319 0
-977 9319 0
-997 9319 0
-1017 9319 0
-1037 9319 0
-1057 9319 0
-1077 9319 0
-1097 9319 0
-1117 9319 0
-1137 9319 0
-1157 9319 0
-1177 9319 0
-1218 9319 0
-1238 9319 0
-1258 9319 0
-1278 9319 0
-1298 9319 0
-9319 9298 897 917 937 957 977 997 1017 1037 1057 1077 1097 1117 1137 1157 1177 1218 1238 1258 1278 1298 0
-9299 9320 0
-898 9320 0
-918 9320 0
-938 9320 0
-958 9320 0
-978 9320 0
-998 9320 0
-1018 9320 0
-1038 9320 0
-1058 9320 0
-1078 9320 0
-1098 9320 0
-1118 9320 0
-1138 9320 0
-1158 9320 0
-1178 9320 0
-1198 9320 0
-1239 9320 0
-1259 9320 0
-1279 9320 0
-1299 9320 0
-9320 9299 898 918 938 958 978 998 1018 1038 1058 1078 1098 1118 1138 1158 1178 1198 1239 1259 1279 1299 0
-9300 9321 0
-899 9321 0
-919 9321 0
-939 9321 0
-959 9321 0
-979 9321 0
-999 9321 0
-1019 9321 0
-1039 9321 0
-1059 9321 0
-1079 9321 0
-1099 9321 0
-1119 9321 0
-1139 9321 0
-1159 9321 0
-1179 9321 0
-1199 9321 0
-1219 9321 0
-1260 9321 0
-1280 9321 0
-1300 9321 0
-9321 9300 899 919 939 959 979 999 1019 1039 1059 1079 1099 1119 1139 1159 1179 1199 1219 1260 1280 1300 0
-9301 9322 0
-900 9322 0
-920 9322 0
-940 9322 0
-960 9322 0
-980 9322 0
-1000 9322 0
-1020 9322 0
-1040 9322 0
-1060 9322 0
-1080 9322 0
-1100 9322 0
-1120 9322 0
-1140 9322 0
-1160 9322 0
-1180 9322 0
-1200 9322 0
-1220 9322 0
-1240 9322 0
-1281 9322 0
-1301 9322 0
-9322 9301 900 920 940 960 980 1000 1020 1040 1060 1080 1100 1120 1140 1160 1180 1200 1220 1240 1281 1301 0
-9302 9323 0
-901 9323 0
-921 9323 0
-941 9323 0
-961 9323 0
-981 9323 0
-1001 9323 0
-1021 9323 0
-1041 9323 0
-1061 9323 0
-1081 9323 0
-1101 9323 0
-1121 9323 0
-1141 9323 0
-1161 9323 0
-1181 9323 0
-1201 9323 0
-1221 9323 0
-1241 9323 0
-1261 9323 0
-1302 9323 0
-9323 9302 901 921 941 961 981 1001 1021 1041 1061 1081 1101 1121 1141 1161 1181 1201 1221 1241 1261 1302 0
-9303 9324 0
-902 9324 0
-922 9324 0
-942 9324 0
-962 9324 0
-982 9324 0
-1002 9324 0
-1022 9324 0
-1042 9324 0
-1062 9324 0
-1082 9324 0
-1102 9324 0
-1122 9324 0
-1142 9324 0
-1162 9324 0
-1182 9324 0
-1202 9324 0
-1222 9324 0
-1242 9324 0
-1262 9324 0
-1282 9324 0
-9324 9303 902 922 942 962 982 1002 1022 1042 1062 1082 1102 1122 1142 1162 1182 1202 1222 1242 1262 1282 0
-9304 9325 0
-1323 9325 0
-1343 9325 0
-1363 9325 0
-1383 9325 0
-1403 9325 0
-1423 9325 0
-1443 9325 0
-1463 9325 0
-1483 9325 0
-1503 9325 0
-1523 9325 0
-1543 9325 0
-1563 9325 0
-1583 9325 0
-1603 9325 0
-1623 9325 0
-1643 9325 0
-1663 9325 0
-1683 9325 0
-1703 9325 0
-9325 9304 1323 1343 1363 1383 1403 1423 1443 1463 1483 1503 1523 1543 1563 1583 1603 1623 1643 1663 1683 1703 0
-9305 9326 0
-1303 9326 0
-1344 9326 0
-1364 9326 0
-1384 9326 0
-1404 9326 0
-1424 9326 0
-1444 9326 0
-1464 9326 0
-1484 9326 0
-1504 9326 0
-1524 9326 0
-1544 9326 0
-1564 9326 0
-1584 9326 0
-1604 9326 0
-1624 9326 0
-1644 9326 0
-1664 9326 0
-1684 9326 0
-1704 9326 0
-9326 9305 1303 1344 1364 1384 1404 1424 1444 1464 1484 1504 1524 1544 1564 1584 1604 1624 1644 1664 1684 1704 0
-9306 9327 0
-1304 9327 0
-1324 9327 0
-1365 9327 0
-1385 9327 0
-1405 9327 0
-1425 9327 0
-1445 9327 0
-1465 9327 0
-1485 9327 0
-1505 9327 0
-1525 9327 0
-1545 9327 0
-1565 9327 0
-1585 9327 0
-1605 9327 0
-1625 9327 0
-1645 9327 0
-1665 9327 0
-1685 9327 0
-1705 9327 0
-9327 9306 1304 1324 1365 1385 1405 1425 1445 1465 1485 1505 1525 1545 1565 1585 1605 1625 1645 1665 1685 1705 0
-9307 9328 0
-1305 9328 0
-1325 9328 0
-1345 9328 0
-1386 9328 0
-1406 9328 0
-1426 9328 0
-1446 9328 0
-1466 9328 0
-1486 9328 0
-1506 9328 0
-1526 9328 0
-1546 9328 0
-1566 9328 0
-1586 9328 0
-1606 9328 0
-1626 9328 0
-1646 9328 0
-1666 9328 0
-1686 9328 0
-1706 9328 0
-9328 9307 1305 1325 1345 1386 1406 1426 1446 1466 1486 1506 1526 1546 1566 1586 1606 1626 1646 1666 1686 1706 0
-9308 9329 0
-1306 9329 0
-1326 9329 0
-1346 9329 0
-1366 9329 0
-1407 9329 0
-1427 9329 0
-1447 9329 0
-1467 9329 0
-1487 9329 0
-1507 9329 0
-1527 9329 0
-1547 9329 0
-1567 9329 0
-1587 9329 0
-1607 9329 0
-1627 9329 0
-1647 9329 0
-1667 9329 0
-1687 9329 0
-1707 9329 0
-9329 9308 1306 1326 1346 1366 1407 1427 1447 1467 1487 1507 1527 1547 1567 1587 1607 1627 1647 1667 1687 1707 0
-9309 9330 0
-1307 9330 0
-1327 9330 0
-1347 9330 0
-1367 9330 0
-1387 9330 0
-1428 9330 0
-1448 9330 0
-1468 9330 0
-1488 9330 0
-1508 9330 0
-1528 9330 0
-1548 9330 0
-1568 9330 0
-1588 9330 0
-1608 9330 0
-1628 9330 0
-1648 9330 0
-1668 9330 0
-1688 9330 0
-1708 9330 0
-9330 9309 1307 1327 1347 1367 1387 1428 1448 1468 1488 1508 1528 1548 1568 1588 1608 1628 1648 1668 1688 1708 0
-9310 9331 0
-1308 9331 0
-1328 9331 0
-1348 9331 0
-1368 9331 0
-1388 9331 0
-1408 9331 0
-1449 9331 0
-1469 9331 0
-1489 9331 0
-1509 9331 0
-1529 9331 0
-1549 9331 0
-1569 9331 0
-1589 9331 0
-1609 9331 0
-1629 9331 0
-1649 9331 0
-1669 9331 0
-1689 9331 0
-1709 9331 0
-9331 9310 1308 1328 1348 1368 1388 1408 1449 1469 1489 1509 1529 1549 1569 1589 1609 1629 1649 1669 1689 1709 0
-9311 9332 0
-1309 9332 0
-1329 9332 0
-1349 9332 0
-1369 9332 0
-1389 9332 0
-1409 9332 0
-1429 9332 0
-1470 9332 0
-1490 9332 0
-1510 9332 0
-1530 9332 0
-1550 9332 0
-1570 9332 0
-1590 9332 0
-1610 9332 0
-1630 9332 0
-1650 9332 0
-1670 9332 0
-1690 9332 0
-1710 9332 0
-9332 9311 1309 1329 1349 1369 1389 1409 1429 1470 1490 1510 1530 1550 1570 1590 1610 1630 1650 1670 1690 1710 0
-9312 9333 0
-1310 9333 0
-1330 9333 0
-1350 9333 0
-1370 9333 0
-1390 9333 0
-1410 9333 0
-1430 9333 0
-1450 9333 0
-1491 9333 0
-1511 9333 0
-1531 9333 0
-1551 9333 0
-1571 9333 0
-1591 9333 0
-1611 9333 0
-1631 9333 0
-1651 9333 0
-1671 9333 0
-1691 9333 0
-1711 9333 0
-9333 9312 1310 1330 1350 1370 1390 1410 1430 1450 1491 1511 1531 1551 1571 1591 1611 1631 1651 1671 1691 1711 0
-9313 9334 0
-1311 9334 0
-1331 9334 0
-1351 9334 0
-1371 9334 0
-1391 9334 0
-1411 9334 0
-1431 9334 0
-1451 9334 0
-1471 9334 0
-1512 9334 0
-1532 9334 0
-1552 9334 0
-1572 9334 0
-1592 9334 0
-1612 9334 0
-1632 9334 0
-1652 9334 0
-1672 9334 0
-1692 9334 0
-1712 9334 0
-9334 9313 1311 1331 1351 1371 1391 1411 1431 1451 1471 1512 1532 1552 1572 1592 1612 1632 1652 1672 1692 1712 0
-9314 9335 0
-1312 9335 0
-1332 9335 0
-1352 9335 0
-1372 9335 0
-1392 9335 0
-1412 9335 0
-1432 9335 0
-1452 9335 0
-1472 9335 0
-1492 9335 0
-1533 9335 0
-1553 9335 0
-1573 9335 0
-1593 9335 0
-1613 9335 0
-1633 9335 0
-1653 9335 0
-1673 9335 0
-1693 9335 0
-1713 9335 0
-9335 9314 1312 1332 1352 1372 1392 1412 1432 1452 1472 1492 1533 1553 1573 1593 1613 1633 1653 1673 1693 1713 0
-9315 9336 0
-1313 9336 0
-1333 9336 0
-1353 9336 0
-1373 9336 0
-1393 9336 0
-1413 9336 0
-1433 9336 0
-1453 9336 0
-1473 9336 0
-1493 9336 0
-1513 9336 0
-1554 9336 0
-1574 9336 0
-1594 9336 0
-1614 9336 0
-1634 9336 0
-1654 9336 0
-1674 9336 0
-1694 9336 0
-1714 9336 0
-9336 9315 1313 1333 1353 1373 1393 1413 1433 1453 1473 1493 1513 1554 1574 1594 1614 1634 1654 1674 1694 1714 0
-9316 9337 0
-1314 9337 0
-1334 9337 0
-1354 9337 0
-1374 9337 0
-1394 9337 0
-1414 9337 0
-1434 9337 0
-1454 9337 0
-1474 9337 0
-1494 9337 0
-1514 9337 0
-1534 9337 0
-1575 9337 0
-1595 9337 0
-1615 9337 0
-1635 9337 0
-1655 9337 0
-1675 9337 0
-1695 9337 0
-1715 9337 0
-9337 9316 1314 1334 1354 1374 1394 1414 1434 1454 1474 1494 1514 1534 1575 1595 1615 1635 1655 1675 1695 1715 0
-9317 9338 0
-1315 9338 0
-1335 9338 0
-1355 9338 0
-1375 9338 0
-1395 9338 0
-1415 9338 0
-1435 9338 0
-1455 9338 0
-1475 9338 0
-1495 9338 0
-1515 9338 0
-1535 9338 0
-1555 9338 0
-1596 9338 0
-1616 9338 0
-1636 9338 0
-1656 9338 0
-1676 9338 0
-1696 9338 0
-1716 9338 0
-9338 9317 1315 1335 1355 1375 1395 1415 1435 1455 1475 1495 1515 1535 1555 1596 1616 1636 1656 1676 1696 1716 0
-9318 9339 0
-1316 9339 0
-1336 9339 0
-1356 9339 0
-1376 9339 0
-1396 9339 0
-1416 9339 0
-1436 9339 0
-1456 9339 0
-1476 9339 0
-1496 9339 0
-1516 9339 0
-1536 9339 0
-1556 9339 0
-1576 9339 0
-1617 9339 0
-1637 9339 0
-1657 9339 0
-1677 9339 0
-1697 9339 0
-1717 9339 0
-9339 9318 1316 1336 1356 1376 1396 1416 1436 1456 1476 1496 1516 1536 1556 1576 1617 1637 1657 1677 1697 1717 0
-9319 9340 0
-1317 9340 0
-1337 9340 0
-1357 9340 0
-1377 9340 0
-1397 9340 0
-1417 9340 0
-1437 9340 0
-1457 9340 0
-1477 9340 0
-1497 9340 0
-1517 9340 0
-1537 9340 0
-1557 9340 0
-1577 9340 0
-1597 9340 0
-1638 9340 0
-1658 9340 0
-1678 9340 0
-1698 9340 0
-1718 9340 0
-9340 9319 1317 1337 1357 1377 1397 1417 1437 1457 1477 1497 1517 1537 1557 1577 1597 1638 1658 1678 1698 1718 0
-9320 9341 0
-1318 9341 0
-1338 9341 0
-1358 9341 0
-1378 9341 0
-1398 9341 0
-1418 9341 0
-1438 9341 0
-1458 9341 0
-1478 9341 0
-1498 9341 0
-1518 9341 0
-1538 9341 0
-1558 9341 0
-1578 9341 0
-1598 9341 0
-1618 9341 0
-1659 9341 0
-1679 9341 0
-1699 9341 0
-1719 9341 0
-9341 9320 1318 1338 1358 1378 1398 1418 1438 1458 1478 1498 1518 1538 1558 1578 1598 1618 1659 1679 1699 1719 0
-9321 9342 0
-1319 9342 0
-1339 9342 0
-1359 9342 0
-1379 9342 0
-1399 9342 0
-1419 9342 0
-1439 9342 0
-1459 9342 0
-1479 9342 0
-1499 9342 0
-1519 9342 0
-1539 9342 0
-1559 9342 0
-1579 9342 0
-1599 9342 0
-1619 9342 0
-1639 9342 0
-1680 9342 0
-1700 9342 0
-1720 9342 0
-9342 9321 1319 1339 1359 1379 1399 1419 1439 1459 1479 1499 1519 1539 1559 1579 1599 1619 1639 1680 1700 1720 0
-9322 9343 0
-1320 9343 0
-1340 9343 0
-1360 9343 0
-1380 9343 0
-1400 9343 0
-1420 9343 0
-1440 9343 0
-1460 9343 0
-1480 9343 0
-1500 9343 0
-1520 9343 0
-1540 9343 0
-1560 9343 0
-1580 9343 0
-1600 9343 0
-1620 9343 0
-1640 9343 0
-1660 9343 0
-1701 9343 0
-1721 9343 0
-9343 9322 1320 1340 1360 1380 1400 1420 1440 1460 1480 1500 1520 1540 1560 1580 1600 1620 1640 1660 1701 1721 0
-9323 9344 0
-1321 9344 0
-1341 9344 0
-1361 9344 0
-1381 9344 0
-1401 9344 0
-1421 9344 0
-1441 9344 0
-1461 9344 0
-1481 9344 0
-1501 9344 0
-1521 9344 0
-1541 9344 0
-1561 9344 0
-1581 9344 0
-1601 9344 0
-1621 9344 0
-1641 9344 0
-1661 9344 0
-1681 9344 0
-1722 9344 0
-9344 9323 1321 1341 1361 1381 1401 1421 1441 1461 1481 1501 1521 1541 1561 1581 1601 1621 1641 1661 1681 1722 0
-9324 9345 0
-1322 9345 0
-1342 9345 0
-1362 9345 0
-1382 9345 0
-1402 9345 0
-1422 9345 0
-1442 9345 0
-1462 9345 0
-1482 9345 0
-1502 9345 0
-1522 9345 0
-1542 9345 0
-1562 9345 0
-1582 9345 0
-1602 9345 0
-1622 9345 0
-1642 9345 0
-1662 9345 0
-1682 9345 0
-1702 9345 0
-9345 9324 1322 1342 1362 1382 1402 1422 1442 1462 1482 1502 1522 1542 1562 1582 1602 1622 1642 1662 1682 1702 0
-9325 9346 0
-1743 9346 0
-1763 9346 0
-1783 9346 0
-1803 9346 0
-1823 9346 0
-1843 9346 0
-1863 9346 0
-1883 9346 0
-1903 9346 0
-1923 9346 0
-1943 9346 0
-1963 9346 0
-1983 9346 0
-2003 9346 0
-2023 9346 0
-2043 9346 0
-2063 9346 0
-2083 9346 0
-2103 9346 0
-2123 9346 0
-9346 9325 1743 1763 1783 1803 1823 1843 1863 1883 1903 1923 1943 1963 1983 2003 2023 2043 2063 2083 2103 2123 0
-9326 9347 0
-1723 9347 0
-1764 9347 0
-1784 9347 0
-1804 9347 0
-1824 9347 0
-1844 9347 0
-1864 9347 0
-1884 9347 0
-1904 9347 0
-1924 9347 0
-1944 9347 0
-1964 9347 0
-1984 9347 0
-2004 9347 0
-2024 9347 0
-2044 9347 0
-2064 9347 0
-2084 9347 0
-2104 9347 0
-2124 9347 0
-9347 9326 1723 1764 1784 1804 1824 1844 1864 1884 1904 1924 1944 1964 1984 2004 2024 2044 2064 2084 2104 2124 0
-9327 9348 0
-1724 9348 0
-1744 9348 0
-1785 9348 0
-1805 9348 0
-1825 9348 0
-1845 9348 0
-1865 9348 0
-1885 9348 0
-1905 9348 0
-1925 9348 0
-1945 9348 0
-1965 9348 0
-1985 9348 0
-2005 9348 0
-2025 9348 0
-2045 9348 0
-2065 9348 0
-2085 9348 0
-2105 9348 0
-2125 9348 0
-9348 9327 1724 1744 1785 1805 1825 1845 1865 1885 1905 1925 1945 1965 1985 2005 2025 2045 2065 2085 2105 2125 0
-9328 9349 0
-1725 9349 0
-1745 9349 0
-1765 9349 0
-1806 9349 0
-1826 9349 0
-1846 9349 0
-1866 9349 0
-1886 9349 0
-1906 9349 0
-1926 9349 0
-1946 9349 0
-1966 9349 0
-1986 9349 0
-2006 9349 0
-2026 9349 0
-2046 9349 0
-2066 9349 0
-2086 9349 0
-2106 9349 0
-2126 9349 0
-9349 9328 1725 1745 1765 1806 1826 1846 1866 1886 1906 1926 1946 1966 1986 2006 2026 2046 2066 2086 2106 2126 0
-9329 9350 0
-1726 9350 0
-1746 9350 0
-1766 9350 0
-1786 9350 0
-1827 9350 0
-1847 9350 0
-1867 9350 0
-1887 9350 0
-1907 9350 0
-1927 9350 0
-1947 9350 0
-1967 9350 0
-1987 9350 0
-2007 9350 0
-2027 9350 0
-2047 9350 0
-2067 9350 0
-2087 9350 0
-2107 9350 0
-2127 9350 0
-9350 9329 1726 1746 1766 1786 1827 1847 1867 1887 1907 1927 1947 1967 1987 2007 2027 2047 2067 2087 2107 2127 0
-9330 9351 0
-1727 9351 0
-1747 9351 0
-1767 9351 0
-1787 9351 0
-1807 9351 0
-1848 9351 0
-1868 9351 0
-1888 9351 0
-1908 9351 0
-1928 9351 0
-1948 9351 0
-1968 9351 0
-1988 9351 0
-2008 9351 0
-2028 9351 0
-2048 9351 0
-2068 9351 0
-2088 9351 0
-2108 9351 0
-2128 9351 0
-9351 9330 1727 1747 1767 1787 1807 1848 1868 1888 1908 1928 1948 1968 1988 2008 2028 2048 2068 2088 2108 2128 0
-9331 9352 0
-1728 9352 0
-1748 9352 0
-1768 9352 0
-1788 9352 0
-1808 9352 0
-1828 9352 0
-1869 9352 0
-1889 9352 0
-1909 9352 0
-1929 9352 0
-1949 9352 0
-1969 9352 0
-1989 9352 0
-2009 9352 0
-2029 9352 0
-2049 9352 0
-2069 9352 0
-2089 9352 0
-2109 9352 0
-2129 9352 0
-9352 9331 1728 1748 1768 1788 1808 1828 1869 1889 1909 1929 1949 1969 1989 2009 2029 2049 2069 2089 2109 2129 0
-9332 9353 0
-1729 9353 0
-1749 9353 0
-1769 9353 0
-1789 9353 0
-1809 9353 0
-1829 9353 0
-1849 9353 0
-1890 9353 0
-1910 9353 0
-1930 9353 0
-1950 9353 0
-1970 9353 0
-1990 9353 0
-2010 9353 0
-2030 9353 0
-2050 9353 0
-2070 9353 0
-2090 9353 0
-2110 9353 0
-2130 9353 0
-9353 9332 1729 1749 1769 1789 1809 1829 1849 1890 1910 1930 1950 1970 1990 2010 2030 2050 2070 2090 2110 2130 0
-9333 9354 0
-1730 9354 0
-1750 9354 0
-1770 9354 0
-1790 9354 0
-1810 9354 0
-1830 9354 0
-1850 9354 0
-1870 9354 0
-1911 9354 0
-1931 9354 0
-1951 9354 0
-1971 9354 0
-1991 9354 0
-2011 9354 0
-2031 9354 0
-2051 9354 0
-2071 9354 0
-2091 9354 0
-2111 9354 0
-2131 9354 0
-9354 9333 1730 1750 1770 1790 1810 1830 1850 1870 1911 1931 1951 1971 1991 2011 2031 2051 2071 2091 2111 2131 0
-9334 9355 0
-1731 9355 0
-1751 9355 0
-1771 9355 0
-1791 9355 0
-1811 9355 0
-1831 9355 0
-1851 9355 0
-1871 9355 0
-1891 9355 0
-1932 9355 0
-1952 9355 0
-1972 9355 0
-1992 9355 0
-2012 9355 0
-2032 9355 0
-2052 9355 0
-2072 9355 0
-2092 9355 0
-2112 9355 0
-2132 9355 0
-9355 9334 1731 1751 1771 1791 1811 1831 1851 1871 1891 1932 1952 1972 1992 2012 2032 2052 2072 2092 2112 2132 0
-9335 9356 0
-1732 9356 0
-1752 9356 0
-1772 9356 0
-1792 9356 0
-1812 9356 0
-1832 9356 0
-1852 9356 0
-1872 9356 0
-1892 9356 0
-1912 9356 0
-1953 9356 0
-1973 9356 0
-1993 9356 0
-2013 9356 0
-2033 9356 0
-2053 9356 0
-2073 9356 0
-2093 9356 0
-2113 9356 0
-2133 9356 0
-9356 9335 1732 1752 1772 1792 1812 1832 1852 1872 1892 1912 1953 1973 1993 2013 2033 2053 2073 2093 2113 2133 0
-9336 9357 0
-1733 9357 0
-1753 9357 0
-1773 9357 0
-1793 9357 0
-1813 9357 0
-1833 9357 0
-1853 9357 0
-1873 9357 0
-1893 9357 0
-1913 9357 0
-1933 9357 0
-1974 9357 0
-1994 9357 0
-2014 9357 0
-2034 9357 0
-2054 9357 0
-2074 9357 0
-2094 9357 0
-2114 9357 0
-2134 9357 0
-9357 9336 1733 1753 1773 1793 1813 1833 1853 1873 1893 1913 1933 1974 1994 2014 2034 2054 2074 2094 2114 2134 0
-9337 9358 0
-1734 9358 0
-1754 9358 0
-1774 9358 0
-1794 9358 0
-1814 9358 0
-1834 9358 0
-1854 9358 0
-1874 9358 0
-1894 9358 0
-1914 9358 0
-1934 9358 0
-1954 9358 0
-1995 9358 0
-2015 9358 0
-2035 9358 0
-2055 9358 0
-2075 9358 0
-2095 9358 0
-2115 9358 0
-2135 9358 0
-9358 9337 1734 1754 1774 1794 1814 1834 1854 1874 1894 1914 1934 1954 1995 2015 2035 2055 2075 2095 2115 2135 0
-9338 9359 0
-1735 9359 0
-1755 9359 0
-1775 9359 0
-1795 9359 0
-1815 9359 0
-1835 9359 0
-1855 9359 0
-1875 9359 0
-1895 9359 0
-1915 9359 0
-1935 9359 0
-1955 9359 0
-1975 9359 0
-2016 9359 0
-2036 9359 0
-2056 9359 0
-2076 9359 0
-2096 9359 0
-2116 9359 0
-2136 9359 0
-9359 9338 1735 1755 1775 1795 1815 1835 1855 1875 1895 1915 1935 1955 1975 2016 2036 2056 2076 2096 2116 2136 0
-9339 9360 0
-1736 9360 0
-1756 9360 0
-1776 9360 0
-1796 9360 0
-1816 9360 0
-1836 9360 0
-1856 9360 0
-1876 9360 0
-1896 9360 0
-1916 9360 0
-1936 9360 0
-1956 9360 0
-1976 9360 0
-1996 9360 0
-2037 9360 0
-2057 9360 0
-2077 9360 0
-2097 9360 0
-2117 9360 0
-2137 9360 0
-9360 9339 1736 1756 1776 1796 1816 1836 1856 1876 1896 1916 1936 1956 1976 1996 2037 2057 2077 2097 2117 2137 0
-9340 9361 0
-1737 9361 0
-1757 9361 0
-1777 9361 0
-1797 9361 0
-1817 9361 0
-1837 9361 0
-1857 9361 0
-1877 9361 0
-1897 9361 0
-1917 9361 0
-1937 9361 0
-1957 9361 0
-1977 9361 0
-1997 9361 0
-2017 9361 0
-2058 9361 0
-2078 9361 0
-2098 9361 0
-2118 9361 0
-2138 9361 0
-9361 9340 1737 1757 1777 1797 1817 1837 1857 1877 1897 1917 1937 1957 1977 1997 2017 2058 2078 2098 2118 2138 0
-9341 9362 0
-1738 9362 0
-1758 9362 0
-1778 9362 0
-1798 9362 0
-1818 9362 0
-1838 9362 0
-1858 9362 0
-1878 9362 0
-1898 9362 0
-1918 9362 0
-1938 9362 0
-1958 9362 0
-1978 9362 0
-1998 9362 0
-2018 9362 0
-2038 9362 0
-2079 9362 0
-2099 9362 0
-2119 9362 0
-2139 9362 0
-9362 9341 1738 1758 1778 1798 1818 1838 1858 1878 1898 1918 1938 1958 1978 1998 2018 2038 2079 2099 2119 2139 0
-9342 9363 0
-1739 9363 0
-1759 9363 0
-1779 9363 0
-1799 9363 0
-1819 9363 0
-1839 9363 0
-1859 9363 0
-1879 9363 0
-1899 9363 0
-1919 9363 0
-1939 9363 0
-1959 9363 0
-1979 9363 0
-1999 9363 0
-2019 9363 0
-2039 9363 0
-2059 9363 0
-2100 9363 0
-2120 9363 0
-2140 9363 0
-9363 9342 1739 1759 1779 1799 1819 1839 1859 1879 1899 1919 1939 1959 1979 1999 2019 2039 2059 2100 2120 2140 0
-9343 9364 0
-1740 9364 0
-1760 9364 0
-1780 9364 0
-1800 9364 0
-1820 9364 0
-1840 9364 0
-1860 9364 0
-1880 9364 0
-1900 9364 0
-1920 9364 0
-1940 9364 0
-1960 9364 0
-1980 9364 0
-2000 9364 0
-2020 9364 0
-2040 9364 0
-2060 9364 0
-2080 9364 0
-2121 9364 0
-2141 9364 0
-9364 9343 1740 1760 1780 1800 1820 1840 1860 1880 1900 1920 1940 1960 1980 2000 2020 2040 2060 2080 2121 2141 0
-9344 9365 0
-1741 9365 0
-1761 9365 0
-1781 9365 0
-1801 9365 0
-1821 9365 0
-1841 9365 0
-1861 9365 0
-1881 9365 0
-1901 9365 0
-1921 9365 0
-1941 9365 0
-1961 9365 0
-1981 9365 0
-2001 9365 0
-2021 9365 0
-2041 9365 0
-2061 9365 0
-2081 9365 0
-2101 9365 0
-2142 9365 0
-9365 9344 1741 1761 1781 1801 1821 1841 1861 1881 1901 1921 1941 1961 1981 2001 2021 2041 2061 2081 2101 2142 0
-9345 9366 0
-1742 9366 0
-1762 9366 0
-1782 9366 0
-1802 9366 0
-1822 9366 0
-1842 9366 0
-1862 9366 0
-1882 9366 0
-1902 9366 0
-1922 9366 0
-1942 9366 0
-1962 9366 0
-1982 9366 0
-2002 9366 0
-2022 9366 0
-2042 9366 0
-2062 9366 0
-2082 9366 0
-2102 9366 0
-2122 9366 0
-9366 9345 1742 1762 1782 1802 1822 1842 1862 1882 1902 1922 1942 1962 1982 2002 2022 2042 2062 2082 2102 2122 0
-9346 9367 0
-2163 9367 0
-2183 9367 0
-2203 9367 0
-2223 9367 0
-2243 9367 0
-2263 9367 0
-2283 9367 0
-2303 9367 0
-2323 9367 0
-2343 9367 0
-2363 9367 0
-2383 9367 0
-2403 9367 0
-2423 9367 0
-2443 9367 0
-2463 9367 0
-2483 9367 0
-2503 9367 0
-2523 9367 0
-2543 9367 0
-9367 9346 2163 2183 2203 2223 2243 2263 2283 2303 2323 2343 2363 2383 2403 2423 2443 2463 2483 2503 2523 2543 0
-9347 9368 0
-2143 9368 0
-2184 9368 0
-2204 9368 0
-2224 9368 0
-2244 9368 0
-2264 9368 0
-2284 9368 0
-2304 9368 0
-2324 9368 0
-2344 9368 0
-2364 9368 0
-2384 9368 0
-2404 9368 0
-2424 9368 0
-2444 9368 0
-2464 9368 0
-2484 9368 0
-2504 9368 0
-2524 9368 0
-2544 9368 0
-9368 9347 2143 2184 2204 2224 2244 2264 2284 2304 2324 2344 2364 2384 2404 2424 2444 2464 2484 2504 2524 2544 0
-9348 9369 0
-2144 9369 0
-2164 9369 0
-2205 9369 0
-2225 9369 0
-2245 9369 0
-2265 9369 0
-2285 9369 0
-2305 9369 0
-2325 9369 0
-2345 9369 0
-2365 9369 0
-2385 9369 0
-2405 9369 0
-2425 9369 0
-2445 9369 0
-2465 9369 0
-2485 9369 0
-2505 9369 0
-2525 9369 0
-2545 9369 0
-9369 9348 2144 2164 2205 2225 2245 2265 2285 2305 2325 2345 2365 2385 2405 2425 2445 2465 2485 2505 2525 2545 0
-9349 9370 0
-2145 9370 0
-2165 9370 0
-2185 9370 0
-2226 9370 0
-2246 9370 0
-2266 9370 0
-2286 9370 0
-2306 9370 0
-2326 9370 0
-2346 9370 0
-2366 9370 0
-2386 9370 0
-2406 9370 0
-2426 9370 0
-2446 9370 0
-2466 9370 0
-2486 9370 0
-2506 9370 0
-2526 9370 0
-2546 9370 0
-9370 9349 2145 2165 2185 2226 2246 2266 2286 2306 2326 2346 2366 2386 2406 2426 2446 2466 2486 2506 2526 2546 0
-9350 9371 0
-2146 9371 0
-2166 9371 0
-2186 9371 0
-2206 9371 0
-2247 9371 0
-2267 9371 0
-2287 9371 0
-2307 9371 0
-2327 9371 0
-2347 9371 0
-2367 9371 0
-2387 9371 0
-2407 9371 0
-2427 9371 0
-2447 9371 0
-2467 9371 0
-2487 9371 0
-2507 9371 0
-2527 9371 0
-2547 9371 0
-9371 9350 2146 2166 2186 2206 2247 2267 2287 2307 2327 2347 2367 2387 2407 2427 2447 2467 2487 2507 2527 2547 0
-9351 9372 0
-2147 9372 0
-2167 9372 0
-2187 9372 0
-2207 9372 0
-2227 9372 0
-2268 9372 0
-2288 9372 0
-2308 9372 0
-2328 9372 0
-2348 9372 0
-2368 9372 0
-2388 9372 0
-2408 9372 0
-2428 9372 0
-2448 9372 0
-2468 9372 0
-2488 9372 0
-2508 9372 0
-2528 9372 0
-2548 9372 0
-9372 9351 2147 2167 2187 2207 2227 2268 2288 2308 2328 2348 2368 2388 2408 2428 2448 2468 2488 2508 2528 2548 0
-9352 9373 0
-2148 9373 0
-2168 9373 0
-2188 9373 0
-2208 9373 0
-2228 9373 0
-2248 9373 0
-2289 9373 0
-2309 9373 0
-2329 9373 0
-2349 9373 0
-2369 9373 0
-2389 9373 0
-2409 9373 0
-2429 9373 0
-2449 9373 0
-2469 9373 0
-2489 9373 0
-2509 9373 0
-2529 9373 0
-2549 9373 0
-9373 9352 2148 2168 2188 2208 2228 2248 2289 2309 2329 2349 2369 2389 2409 2429 2449 2469 2489 2509 2529 2549 0
-9353 9374 0
-2149 9374 0
-2169 9374 0
-2189 9374 0
-2209 9374 0
-2229 9374 0
-2249 9374 0
-2269 9374 0
-2310 9374 0
-2330 9374 0
-2350 9374 0
-2370 9374 0
-2390 9374 0
-2410 9374 0
-2430 9374 0
-2450 9374 0
-2470 9374 0
-2490 9374 0
-2510 9374 0
-2530 9374 0
-2550 9374 0
-9374 9353 2149 2169 2189 2209 2229 2249 2269 2310 2330 2350 2370 2390 2410 2430 2450 2470 2490 2510 2530 2550 0
-9354 9375 0
-2150 9375 0
-2170 9375 0
-2190 9375 0
-2210 9375 0
-2230 9375 0
-2250 9375 0
-2270 9375 0
-2290 9375 0
-2331 9375 0
-2351 9375 0
-2371 9375 0
-2391 9375 0
-2411 9375 0
-2431 9375 0
-2451 9375 0
-2471 9375 0
-2491 9375 0
-2511 9375 0
-2531 9375 0
-2551 9375 0
-9375 9354 2150 2170 2190 2210 2230 2250 2270 2290 2331 2351 2371 2391 2411 2431 2451 2471 2491 2511 2531 2551 0
-9355 9376 0
-2151 9376 0
-2171 9376 0
-2191 9376 0
-2211 9376 0
-2231 9376 0
-2251 9376 0
-2271 9376 0
-2291 9376 0
-2311 9376 0
-2352 9376 0
-2372 9376 0
-2392 9376 0
-2412 9376 0
-2432 9376 0
-2452 9376 0
-2472 9376 0
-2492 9376 0
-2512 9376 0
-2532 9376 0
-2552 9376 0
-9376 9355 2151 2171 2191 2211 2231 2251 2271 2291 2311 2352 2372 2392 2412 2432 2452 2472 2492 2512 2532 2552 0
-9356 9377 0
-2152 9377 0
-2172 9377 0
-2192 9377 0
-2212 9377 0
-2232 9377 0
-2252 9377 0
-2272 9377 0
-2292 9377 0
-2312 9377 0
-2332 9377 0
-2373 9377 0
-2393 9377 0
-2413 9377 0
-2433 9377 0
-2453 9377 0
-2473 9377 0
-2493 9377 0
-2513 9377 0
-2533 9377 0
-2553 9377 0
-9377 9356 2152 2172 2192 2212 2232 2252 2272 2292 2312 2332 2373 2393 2413 2433 2453 2473 2493 2513 2533 2553 0
-9357 9378 0
-2153 9378 0
-2173 9378 0
-2193 9378 0
-2213 9378 0
-2233 9378 0
-2253 9378 0
-2273 9378 0
-2293 9378 0
-2313 9378 0
-2333 9378 0
-2353 9378 0
-2394 9378 0
-2414 9378 0
-2434 9378 0
-2454 9378 0
-2474 9378 0
-2494 9378 0
-2514 9378 0
-2534 9378 0
-2554 9378 0
-9378 9357 2153 2173 2193 2213 2233 2253 2273 2293 2313 2333 2353 2394 2414 2434 2454 2474 2494 2514 2534 2554 0
-9358 9379 0
-2154 9379 0
-2174 9379 0
-2194 9379 0
-2214 9379 0
-2234 9379 0
-2254 9379 0
-2274 9379 0
-2294 9379 0
-2314 9379 0
-2334 9379 0
-2354 9379 0
-2374 9379 0
-2415 9379 0
-2435 9379 0
-2455 9379 0
-2475 9379 0
-2495 9379 0
-2515 9379 0
-2535 9379 0
-2555 9379 0
-9379 9358 2154 2174 2194 2214 2234 2254 2274 2294 2314 2334 2354 2374 2415 2435 2455 2475 2495 2515 2535 2555 0
-9359 9380 0
-2155 9380 0
-2175 9380 0
-2195 9380 0
-2215 9380 0
-2235 9380 0
-2255 9380 0
-2275 9380 0
-2295 9380 0
-2315 9380 0
-2335 9380 0
-2355 9380 0
-2375 9380 0
-2395 9380 0
-2436 9380 0
-2456 9380 0
-2476 9380 0
-2496 9380 0
-2516 9380 0
-2536 9380 0
-2556 9380 0
-9380 9359 2155 2175 2195 2215 2235 2255 2275 2295 2315 2335 2355 2375 2395 2436 2456 2476 2496 2516 2536 2556 0
-9360 9381 0
-2156 9381 0
-2176 9381 0
-2196 9381 0
-2216 9381 0
-2236 9381 0
-2256 9381 0
-2276 9381 0
-2296 9381 0
-2316 9381 0
-2336 9381 0
-2356 9381 0
-2376 9381 0
-2396 9381 0
-2416 9381 0
-2457 9381 0
-2477 9381 0
-2497 9381 0
-2517 9381 0
-2537 9381 0
-2557 9381 0
-9381 9360 2156 2176 2196 2216 2236 2256 2276 2296 2316 2336 2356 2376 2396 2416 2457 2477 2497 2517 2537 2557 0
-9361 9382 0
-2157 9382 0
-2177 9382 0
-2197 9382 0
-2217 9382 0
-2237 9382 0
-2257 9382 0
-2277 9382 0
-2297 9382 0
-2317 9382 0
-2337 9382 0
-2357 9382 0
-2377 9382 0
-2397 9382 0
-2417 9382 0
-2437 9382 0
-2478 9382 0
-2498 9382 0
-2518 9382 0
-2538 9382 0
-2558 9382 0
-9382 9361 2157 2177 2197 2217 2237 2257 2277 2297 2317 2337 2357 2377 2397 2417 2437 2478 2498 2518 2538 2558 0
-9362 9383 0
-2158 9383 0
-2178 9383 0
-2198 9383 0
-2218 9383 0
-2238 9383 0
-2258 9383 0
-2278 9383 0
-2298 9383 0
-2318 9383 0
-2338 9383 0
-2358 9383 0
-2378 9383 0
-2398 9383 0
-2418 9383 0
-2438 9383 0
-2458 9383 0
-2499 9383 0
-2519 9383 0
-2539 9383 0
-2559 9383 0
-9383 9362 2158 2178 2198 2218 2238 2258 2278 2298 2318 2338 2358 2378 2398 2418 2438 2458 2499 2519 2539 2559 0
-9363 9384 0
-2159 9384 0
-2179 9384 0
-2199 9384 0
-2219 9384 0
-2239 9384 0
-2259 9384 0
-2279 9384 0
-2299 9384 0
-2319 9384 0
-2339 9384 0
-2359 9384 0
-2379 9384 0
-2399 9384 0
-2419 9384 0
-2439 9384 0
-2459 9384 0
-2479 9384 0
-2520 9384 0
-2540 9384 0
-2560 9384 0
-9384 9363 2159 2179 2199 2219 2239 2259 2279 2299 2319 2339 2359 2379 2399 2419 2439 2459 2479 2520 2540 2560 0
-9364 9385 0
-2160 9385 0
-2180 9385 0
-2200 9385 0
-2220 9385 0
-2240 9385 0
-2260 9385 0
-2280 9385 0
-2300 9385 0
-2320 9385 0
-2340 9385 0
-2360 9385 0
-2380 9385 0
-2400 9385 0
-2420 9385 0
-2440 9385 0
-2460 9385 0
-2480 9385 0
-2500 9385 0
-2541 9385 0
-2561 9385 0
-9385 9364 2160 2180 2200 2220 2240 2260 2280 2300 2320 2340 2360 2380 2400 2420 2440 2460 2480 2500 2541 2561 0
-9365 9386 0
-2161 9386 0
-2181 9386 0
-2201 9386 0
-2221 9386 0
-2241 9386 0
-2261 9386 0
-2281 9386 0
-2301 9386 0
-2321 9386 0
-2341 9386 0
-2361 9386 0
-2381 9386 0
-2401 9386 0
-2421 9386 0
-2441 9386 0
-2461 9386 0
-2481 9386 0
-2501 9386 0
-2521 9386 0
-2562 9386 0
-9386 9365 2161 2181 2201 2221 2241 2261 2281 2301 2321 2341 2361 2381 2401 2421 2441 2461 2481 2501 2521 2562 0
-9366 9387 0
-2162 9387 0
-2182 9387 0
-2202 9387 0
-2222 9387 0
-2242 9387 0
-2262 9387 0
-2282 9387 0
-2302 9387 0
-2322 9387 0
-2342 9387 0
-2362 9387 0
-2382 9387 0
-2402 9387 0
-2422 9387 0
-2442 9387 0
-2462 9387 0
-2482 9387 0
-2502 9387 0
-2522 9387 0
-2542 9387 0
-9387 9366 2162 2182 2202 2222 2242 2262 2282 2302 2322 2342 2362 2382 2402 2422 2442 2462 2482 2502 2522 2542 0
-9367 9388 0
-2583 9388 0
-2603 9388 0
-2623 9388 0
-2643 9388 0
-2663 9388 0
-2683 9388 0
-2703 9388 0
-2723 9388 0
-2743 9388 0
-2763 9388 0
-2783 9388 0
-2803 9388 0
-2823 9388 0
-2843 9388 0
-2863 9388 0
-2883 9388 0
-2903 9388 0
-2923 9388 0
-2943 9388 0
-2963 9388 0
-9388 9367 2583 2603 2623 2643 2663 2683 2703 2723 2743 2763 2783 2803 2823 2843 2863 2883 2903 2923 2943 2963 0
-9368 9389 0
-2563 9389 0
-2604 9389 0
-2624 9389 0
-2644 9389 0
-2664 9389 0
-2684 9389 0
-2704 9389 0
-2724 9389 0
-2744 9389 0
-2764 9389 0
-2784 9389 0
-2804 9389 0
-2824 9389 0
-2844 9389 0
-2864 9389 0
-2884 9389 0
-2904 9389 0
-2924 9389 0
-2944 9389 0
-2964 9389 0
-9389 9368 2563 2604 2624 2644 2664 2684 2704 2724 2744 2764 2784 2804 2824 2844 2864 2884 2904 2924 2944 2964 0
-9369 9390 0
-2564 9390 0
-2584 9390 0
-2625 9390 0
-2645 9390 0
-2665 9390 0
-2685 9390 0
-2705 9390 0
-2725 9390 0
-2745 9390 0
-2765 9390 0
-2785 9390 0
-2805 9390 0
-2825 9390 0
-2845 9390 0
-2865 9390 0
-2885 9390 0
-2905 9390 0
-2925 9390 0
-2945 9390 0
-2965 9390 0
-9390 9369 2564 2584 2625 2645 2665 2685 2705 2725 2745 2765 2785 2805 2825 2845 2865 2885 2905 2925 2945 2965 0
-9370 9391 0
-2565 9391 0
-2585 9391 0
-2605 9391 0
-2646 9391 0
-2666 9391 0
-2686 9391 0
-2706 9391 0
-2726 9391 0
-2746 9391 0
-2766 9391 0
-2786 9391 0
-2806 9391 0
-2826 9391 0
-2846 9391 0
-2866 9391 0
-2886 9391 0
-2906 9391 0
-2926 9391 0
-2946 9391 0
-2966 9391 0
-9391 9370 2565 2585 2605 2646 2666 2686 2706 2726 2746 2766 2786 2806 2826 2846 2866 2886 2906 2926 2946 2966 0
-9371 9392 0
-2566 9392 0
-2586 9392 0
-2606 9392 0
-2626 9392 0
-2667 9392 0
-2687 9392 0
-2707 9392 0
-2727 9392 0
-2747 9392 0
-2767 9392 0
-2787 9392 0
-2807 9392 0
-2827 9392 0
-2847 9392 0
-2867 9392 0
-2887 9392 0
-2907 9392 0
-2927 9392 0
-2947 9392 0
-2967 9392 0
-9392 9371 2566 2586 2606 2626 2667 2687 2707 2727 2747 2767 2787 2807 2827 2847 2867 2887 2907 2927 2947 2967 0
-9372 9393 0
-2567 9393 0
-2587 9393 0
-2607 9393 0
-2627 9393 0
-2647 9393 0
-2688 9393 0
-2708 9393 0
-2728 9393 0
-2748 9393 0
-2768 9393 0
-2788 9393 0
-2808 9393 0
-2828 9393 0
-2848 9393 0
-2868 9393 0
-2888 9393 0
-2908 9393 0
-2928 9393 0
-2948 9393 0
-2968 9393 0
-9393 9372 2567 2587 2607 2627 2647 2688 2708 2728 2748 2768 2788 2808 2828 2848 2868 2888 2908 2928 2948 2968 0
-9373 9394 0
-2568 9394 0
-2588 9394 0
-2608 9394 0
-2628 9394 0
-2648 9394 0
-2668 9394 0
-2709 9394 0
-2729 9394 0
-2749 9394 0
-2769 9394 0
-2789 9394 0
-2809 9394 0
-2829 9394 0
-2849 9394 0
-2869 9394 0
-2889 9394 0
-2909 9394 0
-2929 9394 0
-2949 9394 0
-2969 9394 0
-9394 9373 2568 2588 2608 2628 2648 2668 2709 2729 2749 2769 2789 2809 2829 2849 2869 2889 2909 2929 2949 2969 0
-9374 9395 0
-2569 9395 0
-2589 9395 0
-2609 9395 0
-2629 9395 0
-2649 9395 0
-2669 9395 0
-2689 9395 0
-2730 9395 0
-2750 9395 0
-2770 9395 0
-2790 9395 0
-2810 9395 0
-2830 9395 0
-2850 9395 0
-2870 9395 0
-2890 9395 0
-2910 9395 0
-2930 9395 0
-2950 9395 0
-2970 9395 0
-9395 9374 2569 2589 2609 2629 2649 2669 2689 2730 2750 2770 2790 2810 2830 2850 2870 2890 2910 2930 2950 2970 0
-9375 9396 0
-2570 9396 0
-2590 9396 0
-2610 9396 0
-2630 9396 0
-2650 9396 0
-2670 9396 0
-2690 9396 0
-2710 9396 0
-2751 9396 0
-2771 9396 0
-2791 9396 0
-2811 9396 0
-2831 9396 0
-2851 9396 0
-2871 9396 0
-2891 9396 0
-2911 9396 0
-2931 9396 0
-2951 9396 0
-2971 9396 0
-9396 9375 2570 2590 2610 2630 2650 2670 2690 2710 2751 2771 2791 2811 2831 2851 2871 2891 2911 2931 2951 2971 0
-9376 9397 0
-2571 9397 0
-2591 9397 0
-2611 9397 0
-2631 9397 0
-2651 9397 0
-2671 9397 0
-2691 9397 0
-2711 9397 0
-2731 9397 0
-2772 9397 0
-2792 9397 0
-2812 9397 0
-2832 9397 0
-2852 9397 0
-2872 9397 0
-2892 9397 0
-2912 9397 0
-2932 9397 0
-2952 9397 0
-2972 9397 0
-9397 9376 2571 2591 2611 2631 2651 2671 2691 2711 2731 2772 2792 2812 2832 2852 2872 2892 2912 2932 2952 2972 0
-9377 9398 0
-2572 9398 0
-2592 9398 0
-2612 9398 0
-2632 9398 0
-2652 9398 0
-2672 9398 0
-2692 9398 0
-2712 9398 0
-2732 9398 0
-2752 9398 0
-2793 9398 0
-2813 9398 0
-2833 9398 0
-2853 9398 0
-2873 9398 0
-2893 9398 0
-2913 9398 0
-2933 9398 0
-2953 9398 0
-2973 9398 0
-9398 9377 2572 2592 2612 2632 2652 2672 2692 2712 2732 2752 2793 2813 2833 2853 2873 2893 2913 2933 2953 2973 0
-9378 9399 0
-2573 9399 0
-2593 9399 0
-2613 9399 0
-2633 9399 0
-2653 9399 0
-2673 9399 0
-2693 9399 0
-2713 9399 0
-2733 9399 0
-2753 9399 0
-2773 9399 0
-2814 9399 0
-2834 9399 0
-2854 9399 0
-2874 9399 0
-2894 9399 0
-2914 9399 0
-2934 9399 0
-2954 9399 0
-2974 9399 0
-9399 9378 2573 2593 2613 2633 2653 2673 2693 2713 2733 2753 2773 2814 2834 2854 2874 2894 2914 2934 2954 2974 0
-9379 9400 0
-2574 9400 0
-2594 9400 0
-2614 9400 0
-2634 9400 0
-2654 9400 0
-2674 9400 0
-2694 9400 0
-2714 9400 0
-2734 9400 0
-2754 9400 0
-2774 9400 0
-2794 9400 0
-2835 9400 0
-2855 9400 0
-2875 9400 0
-2895 9400 0
-2915 9400 0
-2935 9400 0
-2955 9400 0
-2975 9400 0
-9400 9379 2574 2594 2614 2634 2654 2674 2694 2714 2734 2754 2774 2794 2835 2855 2875 2895 2915 2935 2955 2975 0
-9380 9401 0
-2575 9401 0
-2595 9401 0
-2615 9401 0
-2635 9401 0
-2655 9401 0
-2675 9401 0
-2695 9401 0
-2715 9401 0
-2735 9401 0
-2755 9401 0
-2775 9401 0
-2795 9401 0
-2815 9401 0
-2856 9401 0
-2876 9401 0
-2896 9401 0
-2916 9401 0
-2936 9401 0
-2956 9401 0
-2976 9401 0
-9401 9380 2575 2595 2615 2635 2655 2675 2695 2715 2735 2755 2775 2795 2815 2856 2876 2896 2916 2936 2956 2976 0
-9381 9402 0
-2576 9402 0
-2596 9402 0
-2616 9402 0
-2636 9402 0
-2656 9402 0
-2676 9402 0
-2696 9402 0
-2716 9402 0
-2736 9402 0
-2756 9402 0
-2776 9402 0
-2796 9402 0
-2816 9402 0
-2836 9402 0
-2877 9402 0
-2897 9402 0
-2917 9402 0
-2937 9402 0
-2957 9402 0
-2977 9402 0
-9402 9381 2576 2596 2616 2636 2656 2676 2696 2716 2736 2756 2776 2796 2816 2836 2877 2897 2917 2937 2957 2977 0
-9382 9403 0
-2577 9403 0
-2597 9403 0
-2617 9403 0
-2637 9403 0
-2657 9403 0
-2677 9403 0
-2697 9403 0
-2717 9403 0
-2737 9403 0
-2757 9403 0
-2777 9403 0
-2797 9403 0
-2817 9403 0
-2837 9403 0
-2857 9403 0
-2898 9403 0
-2918 9403 0
-2938 9403 0
-2958 9403 0
-2978 9403 0
-9403 9382 2577 2597 2617 2637 2657 2677 2697 2717 2737 2757 2777 2797 2817 2837 2857 2898 2918 2938 2958 2978 0
-9383 9404 0
-2578 9404 0
-2598 9404 0
-2618 9404 0
-2638 9404 0
-2658 9404 0
-2678 9404 0
-2698 9404 0
-2718 9404 0
-2738 9404 0
-2758 9404 0
-2778 9404 0
-2798 9404 0
-2818 9404 0
-2838 9404 0
-2858 9404 0
-2878 9404 0
-2919 9404 0
-2939 9404 0
-2959 9404 0
-2979 9404 0
-9404 9383 2578 2598 2618 2638 2658 2678 2698 2718 2738 2758 2778 2798 2818 2838 2858 2878 2919 2939 2959 2979 0
-9384 9405 0
-2579 9405 0
-2599 9405 0
-2619 9405 0
-2639 9405 0
-2659 9405 0
-2679 9405 0
-2699 9405 0
-2719 9405 0
-2739 9405 0
-2759 9405 0
-2779 9405 0
-2799 9405 0
-2819 9405 0
-2839 9405 0
-2859 9405 0
-2879 9405 0
-2899 9405 0
-2940 9405 0
-2960 9405 0
-2980 9405 0
-9405 9384 2579 2599 2619 2639 2659 2679 2699 2719 2739 2759 2779 2799 2819 2839 2859 2879 2899 2940 2960 2980 0
-9385 9406 0
-2580 9406 0
-2600 9406 0
-2620 9406 0
-2640 9406 0
-2660 9406 0
-2680 9406 0
-2700 9406 0
-2720 9406 0
-2740 9406 0
-2760 9406 0
-2780 9406 0
-2800 9406 0
-2820 9406 0
-2840 9406 0
-2860 9406 0
-2880 9406 0
-2900 9406 0
-2920 9406 0
-2961 9406 0
-2981 9406 0
-9406 9385 2580 2600 2620 2640 2660 2680 2700 2720 2740 2760 2780 2800 2820 2840 2860 2880 2900 2920 2961 2981 0
-9386 9407 0
-2581 9407 0
-2601 9407 0
-2621 9407 0
-2641 9407 0
-2661 9407 0
-2681 9407 0
-2701 9407 0
-2721 9407 0
-2741 9407 0
-2761 9407 0
-2781 9407 0
-2801 9407 0
-2821 9407 0
-2841 9407 0
-2861 9407 0
-2881 9407 0
-2901 9407 0
-2921 9407 0
-2941 9407 0
-2982 9407 0
-9407 9386 2581 2601 2621 2641 2661 2681 2701 2721 2741 2761 2781 2801 2821 2841 2861 2881 2901 2921 2941 2982 0
-9387 9408 0
-2582 9408 0
-2602 9408 0
-2622 9408 0
-2642 9408 0
-2662 9408 0
-2682 9408 0
-2702 9408 0
-2722 9408 0
-2742 9408 0
-2762 9408 0
-2782 9408 0
-2802 9408 0
-2822 9408 0
-2842 9408 0
-2862 9408 0
-2882 9408 0
-2902 9408 0
-2922 9408 0
-2942 9408 0
-2962 9408 0
-9408 9387 2582 2602 2622 2642 2662 2682 2702 2722 2742 2762 2782 2802 2822 2842 2862 2882 2902 2922 2942 2962 0
-9388 9409 0
-3003 9409 0
-3023 9409 0
-3043 9409 0
-3063 9409 0
-3083 9409 0
-3103 9409 0
-3123 9409 0
-3143 9409 0
-3163 9409 0
-3183 9409 0
-3203 9409 0
-3223 9409 0
-3243 9409 0
-3263 9409 0
-3283 9409 0
-3303 9409 0
-3323 9409 0
-3343 9409 0
-3363 9409 0
-3383 9409 0
-9409 9388 3003 3023 3043 3063 3083 3103 3123 3143 3163 3183 3203 3223 3243 3263 3283 3303 3323 3343 3363 3383 0
-9389 9410 0
-2983 9410 0
-3024 9410 0
-3044 9410 0
-3064 9410 0
-3084 9410 0
-3104 9410 0
-3124 9410 0
-3144 9410 0
-3164 9410 0
-3184 9410 0
-3204 9410 0
-3224 9410 0
-3244 9410 0
-3264 9410 0
-3284 9410 0
-3304 9410 0
-3324 9410 0
-3344 9410 0
-3364 9410 0
-3384 9410 0
-9410 9389 2983 3024 3044 3064 3084 3104 3124 3144 3164 3184 3204 3224 3244 3264 3284 3304 3324 3344 3364 3384 0
-9390 9411 0
-2984 9411 0
-3004 9411 0
-3045 9411 0
-3065 9411 0
-3085 9411 0
-3105 9411 0
-3125 9411 0
-3145 9411 0
-3165 9411 0
-3185 9411 0
-3205 9411 0
-3225 9411 0
-3245 9411 0
-3265 9411 0
-3285 9411 0
-3305 9411 0
-3325 9411 0
-3345 9411 0
-3365 9411 0
-3385 9411 0
-9411 9390 2984 3004 3045 3065 3085 3105 3125 3145 3165 3185 3205 3225 3245 3265 3285 3305 3325 3345 3365 3385 0
-9391 9412 0
-2985 9412 0
-3005 9412 0
-3025 9412 0
-3066 9412 0
-3086 9412 0
-3106 9412 0
-3126 9412 0
-3146 9412 0
-3166 9412 0
-3186 9412 0
-3206 9412 0
-3226 9412 0
-3246 9412 0
-3266 9412 0
-3286 9412 0
-3306 9412 0
-3326 9412 0
-3346 9412 0
-3366 9412 0
-3386 9412 0
-9412 9391 2985 3005 3025 3066 3086 3106 3126 3146 3166 3186 3206 3226 3246 3266 3286 3306 3326 3346 3366 3386 0
-9392 9413 0
-2986 9413 0
-3006 9413 0
-3026 9413 0
-3046 9413 0
-3087 9413 0
-3107 9413 0
-3127 9413 0
-3147 9413 0
-3167 9413 0
-3187 9413 0
-3207 9413 0
-3227 9413 0
-3247 9413 0
-3267 9413 0
-3287 9413 0
-3307 9413 0
-3327 9413 0
-3347 9413 0
-3367 9413 0
-3387 9413 0
-9413 9392 2986 3006 3026 3046 3087 3107 3127 3147 3167 3187 3207 3227 3247 3267 3287 3307 3327 3347 3367 3387 0
-9393 9414 0
-2987 9414 0
-3007 9414 0
-3027 9414 0
-3047 9414 0
-3067 9414 0
-3108 9414 0
-3128 9414 0
-3148 9414 0
-3168 9414 0
-3188 9414 0
-3208 9414 0
-3228 9414 0
-3248 9414 0
-3268 9414 0
-3288 9414 0
-3308 9414 0
-3328 9414 0
-3348 9414 0
-3368 9414 0
-3388 9414 0
-9414 9393 2987 3007 3027 3047 3067 3108 3128 3148 3168 3188 3208 3228 3248 3268 3288 3308 3328 3348 3368 3388 0
-9394 9415 0
-2988 9415 0
-3008 9415 0
-3028 9415 0
-3048 9415 0
-3068 9415 0
-3088 9415 0
-3129 9415 0
-3149 9415 0
-3169 9415 0
-3189 9415 0
-3209 9415 0
-3229 9415 0
-3249 9415 0
-3269 9415 0
-3289 9415 0
-3309 9415 0
-3329 9415 0
-3349 9415 0
-3369 9415 0
-3389 9415 0
-9415 9394 2988 3008 3028 3048 3068 3088 3129 3149 3169 3189 3209 3229 3249 3269 3289 3309 3329 3349 3369 3389 0
-9395 9416 0
-2989 9416 0
-3009 9416 0
-3029 9416 0
-3049 9416 0
-3069 9416 0
-3089 9416 0
-3109 9416 0
-3150 9416 0
-3170 9416 0
-3190 9416 0
-3210 9416 0
-3230 9416 0
-3250 9416 0
-3270 9416 0
-3290 9416 0
-3310 9416 0
-3330 9416 0
-3350 9416 0
-3370 9416 0
-3390 9416 0
-9416 9395 2989 3009 3029 3049 3069 3089 3109 3150 3170 3190 3210 3230 3250 3270 3290 3310 3330 3350 3370 3390 0
-9396 9417 0
-2990 9417 0
-3010 9417 0
-3030 9417 0
-3050 9417 0
-3070 9417 0
-3090 9417 0
-3110 9417 0
-3130 9417 0
-3171 9417 0
-3191 9417 0
-3211 9417 0
-3231 9417 0
-3251 9417 0
-3271 9417 0
-3291 9417 0
-3311 9417 0
-3331 9417 0
-3351 9417 0
-3371 9417 0
-3391 9417 0
-9417 9396 2990 3010 3030 3050 3070 3090 3110 3130 3171 3191 3211 3231 3251 3271 3291 3311 3331 3351 3371 3391 0
-9397 9418 0
-2991 9418 0
-3011 9418 0
-3031 9418 0
-3051 9418 0
-3071 9418 0
-3091 9418 0
-3111 9418 0
-3131 9418 0
-3151 9418 0
-3192 9418 0
-3212 9418 0
-3232 9418 0
-3252 9418 0
-3272 9418 0
-3292 9418 0
-3312 9418 0
-3332 9418 0
-3352 9418 0
-3372 9418 0
-3392 9418 0
-9418 9397 2991 3011 3031 3051 3071 3091 3111 3131 3151 3192 3212 3232 3252 3272 3292 3312 3332 3352 3372 3392 0
-9398 9419 0
-2992 9419 0
-3012 9419 0
-3032 9419 0
-3052 9419 0
-3072 9419 0
-3092 9419 0
-3112 9419 0
-3132 9419 0
-3152 9419 0
-3172 9419 0
-3213 9419 0
-3233 9419 0
-3253 9419 0
-3273 9419 0
-3293 9419 0
-3313 9419 0
-3333 9419 0
-3353 9419 0
-3373 9419 0
-3393 9419 0
-9419 9398 2992 3012 3032 3052 3072 3092 3112 3132 3152 3172 3213 3233 3253 3273 3293 3313 3333 3353 3373 3393 0
-9399 9420 0
-2993 9420 0
-3013 9420 0
-3033 9420 0
-3053 9420 0
-3073 9420 0
-3093 9420 0
-3113 9420 0
-3133 9420 0
-3153 9420 0
-3173 9420 0
-3193 9420 0
-3234 9420 0
-3254 9420 0
-3274 9420 0
-3294 9420 0
-3314 9420 0
-3334 9420 0
-3354 9420 0
-3374 9420 0
-3394 9420 0
-9420 9399 2993 3013 3033 3053 3073 3093 3113 3133 3153 3173 3193 3234 3254 3274 3294 3314 3334 3354 3374 3394 0
-9400 9421 0
-2994 9421 0
-3014 9421 0
-3034 9421 0
-3054 9421 0
-3074 9421 0
-3094 9421 0
-3114 9421 0
-3134 9421 0
-3154 9421 0
-3174 9421 0
-3194 9421 0
-3214 9421 0
-3255 9421 0
-3275 9421 0
-3295 9421 0
-3315 9421 0
-3335 9421 0
-3355 9421 0
-3375 9421 0
-3395 9421 0
-9421 9400 2994 3014 3034 3054 3074 3094 3114 3134 3154 3174 3194 3214 3255 3275 3295 3315 3335 3355 3375 3395 0
-9401 9422 0
-2995 9422 0
-3015 9422 0
-3035 9422 0
-3055 9422 0
-3075 9422 0
-3095 9422 0
-3115 9422 0
-3135 9422 0
-3155 9422 0
-3175 9422 0
-3195 9422 0
-3215 9422 0
-3235 9422 0
-3276 9422 0
-3296 9422 0
-3316 9422 0
-3336 9422 0
-3356 9422 0
-3376 9422 0
-3396 9422 0
-9422 9401 2995 3015 3035 3055 3075 3095 3115 3135 3155 3175 3195 3215 3235 3276 3296 3316 3336 3356 3376 3396 0
-9402 9423 0
-2996 9423 0
-3016 9423 0
-3036 9423 0
-3056 9423 0
-3076 9423 0
-3096 9423 0
-3116 9423 0
-3136 9423 0
-3156 9423 0
-3176 9423 0
-3196 9423 0
-3216 9423 0
-3236 9423 0
-3256 9423 0
-3297 9423 0
-3317 9423 0
-3337 9423 0
-3357 9423 0
-3377 9423 0
-3397 9423 0
-9423 9402 2996 3016 3036 3056 3076 3096 3116 3136 3156 3176 3196 3216 3236 3256 3297 3317 3337 3357 3377 3397 0
-9403 9424 0
-2997 9424 0
-3017 9424 0
-3037 9424 0
-3057 9424 0
-3077 9424 0
-3097 9424 0
-3117 9424 0
-3137 9424 0
-3157 9424 0
-3177 9424 0
-3197 9424 0
-3217 9424 0
-3237 9424 0
-3257 9424 0
-3277 9424 0
-3318 9424 0
-3338 9424 0
-3358 9424 0
-3378 9424 0
-3398 9424 0
-9424 9403 2997 3017 3037 3057 3077 3097 3117 3137 3157 3177 3197 3217 3237 3257 3277 3318 3338 3358 3378 3398 0
-9404 9425 0
-2998 9425 0
-3018 9425 0
-3038 9425 0
-3058 9425 0
-3078 9425 0
-3098 9425 0
-3118 9425 0
-3138 9425 0
-3158 9425 0
-3178 9425 0
-3198 9425 0
-3218 9425 0
-3238 9425 0
-3258 9425 0
-3278 9425 0
-3298 9425 0
-3339 9425 0
-3359 9425 0
-3379 9425 0
-3399 9425 0
-9425 9404 2998 3018 3038 3058 3078 3098 3118 3138 3158 3178 3198 3218 3238 3258 3278 3298 3339 3359 3379 3399 0
-9405 9426 0
-2999 9426 0
-3019 9426 0
-3039 9426 0
-3059 9426 0
-3079 9426 0
-3099 9426 0
-3119 9426 0
-3139 9426 0
-3159 9426 0
-3179 9426 0
-3199 9426 0
-3219 9426 0
-3239 9426 0
-3259 9426 0
-3279 9426 0
-3299 9426 0
-3319 9426 0
-3360 9426 0
-3380 9426 0
-3400 9426 0
-9426 9405 2999 3019 3039 3059 3079 3099 3119 3139 3159 3179 3199 3219 3239 3259 3279 3299 3319 3360 3380 3400 0
-9406 9427 0
-3000 9427 0
-3020 9427 0
-3040 9427 0
-3060 9427 0
-3080 9427 0
-3100 9427 0
-3120 9427 0
-3140 9427 0
-3160 9427 0
-3180 9427 0
-3200 9427 0
-3220 9427 0
-3240 9427 0
-3260 9427 0
-3280 9427 0
-3300 9427 0
-3320 9427 0
-3340 9427 0
-3381 9427 0
-3401 9427 0
-9427 9406 3000 3020 3040 3060 3080 3100 3120 3140 3160 3180 3200 3220 3240 3260 3280 3300 3320 3340 3381 3401 0
-9407 9428 0
-3001 9428 0
-3021 9428 0
-3041 9428 0
-3061 9428 0
-3081 9428 0
-3101 9428 0
-3121 9428 0
-3141 9428 0
-3161 9428 0
-3181 9428 0
-3201 9428 0
-3221 9428 0
-3241 9428 0
-3261 9428 0
-3281 9428 0
-3301 9428 0
-3321 9428 0
-3341 9428 0
-3361 9428 0
-3402 9428 0
-9428 9407 3001 3021 3041 3061 3081 3101 3121 3141 3161 3181 3201 3221 3241 3261 3281 3301 3321 3341 3361 3402 0
-9408 9429 0
-3002 9429 0
-3022 9429 0
-3042 9429 0
-3062 9429 0
-3082 9429 0
-3102 9429 0
-3122 9429 0
-3142 9429 0
-3162 9429 0
-3182 9429 0
-3202 9429 0
-3222 9429 0
-3242 9429 0
-3262 9429 0
-3282 9429 0
-3302 9429 0
-3322 9429 0
-3342 9429 0
-3362 9429 0
-3382 9429 0
-9429 9408 3002 3022 3042 3062 3082 3102 3122 3142 3162 3182 3202 3222 3242 3262 3282 3302 3322 3342 3362 3382 0
-9409 9430 0
-3423 9430 0
-3443 9430 0
-3463 9430 0
-3483 9430 0
-3503 9430 0
-3523 9430 0
-3543 9430 0
-3563 9430 0
-3583 9430 0
-3603 9430 0
-3623 9430 0
-3643 9430 0
-3663 9430 0
-3683 9430 0
-3703 9430 0
-3723 9430 0
-3743 9430 0
-3763 9430 0
-3783 9430 0
-3803 9430 0
-9430 9409 3423 3443 3463 3483 3503 3523 3543 3563 3583 3603 3623 3643 3663 3683 3703 3723 3743 3763 3783 3803 0
-9410 9431 0
-3403 9431 0
-3444 9431 0
-3464 9431 0
-3484 9431 0
-3504 9431 0
-3524 9431 0
-3544 9431 0
-3564 9431 0
-3584 9431 0
-3604 9431 0
-3624 9431 0
-3644 9431 0
-3664 9431 0
-3684 9431 0
-3704 9431 0
-3724 9431 0
-3744 9431 0
-3764 9431 0
-3784 9431 0
-3804 9431 0
-9431 9410 3403 3444 3464 3484 3504 3524 3544 3564 3584 3604 3624 3644 3664 3684 3704 3724 3744 3764 3784 3804 0
-9411 9432 0
-3404 9432 0
-3424 9432 0
-3465 9432 0
-3485 9432 0
-3505 9432 0
-3525 9432 0
-3545 9432 0
-3565 9432 0
-3585 9432 0
-3605 9432 0
-3625 9432 0
-3645 9432 0
-3665 9432 0
-3685 9432 0
-3705 9432 0
-3725 9432 0
-3745 9432 0
-3765 9432 0
-3785 9432 0
-3805 9432 0
-9432 9411 3404 3424 3465 3485 3505 3525 3545 3565 3585 3605 3625 3645 3665 3685 3705 3725 3745 3765 3785 3805 0
-9412 9433 0
-3405 9433 0
-3425 9433 0
-3445 9433 0
-3486 9433 0
-3506 9433 0
-3526 9433 0
-3546 9433 0
-3566 9433 0
-3586 9433 0
-3606 9433 0
-3626 9433 0
-3646 9433 0
-3666 9433 0
-3686 9433 0
-3706 9433 0
-3726 9433 0
-3746 9433 0
-3766 9433 0
-3786 9433 0
-3806 9433 0
-9433 9412 3405 3425 3445 3486 3506 3526 3546 3566 3586 3606 3626 3646 3666 3686 3706 3726 3746 3766 3786 3806 0
-9413 9434 0
-3406 9434 0
-3426 9434 0
-3446 9434 0
-3466 9434 0
-3507 9434 0
-3527 9434 0
-3547 9434 0
-3567 9434 0
-3587 9434 0
-3607 9434 0
-3627 9434 0
-3647 9434 0
-3667 9434 0
-3687 9434 0
-3707 9434 0
-3727 9434 0
-3747 9434 0
-3767 9434 0
-3787 9434 0
-3807 9434 0
-9434 9413 3406 3426 3446 3466 3507 3527 3547 3567 3587 3607 3627 3647 3667 3687 3707 3727 3747 3767 3787 3807 0
-9414 9435 0
-3407 9435 0
-3427 9435 0
-3447 9435 0
-3467 9435 0
-3487 9435 0
-3528 9435 0
-3548 9435 0
-3568 9435 0
-3588 9435 0
-3608 9435 0
-3628 9435 0
-3648 9435 0
-3668 9435 0
-3688 9435 0
-3708 9435 0
-3728 9435 0
-3748 9435 0
-3768 9435 0
-3788 9435 0
-3808 9435 0
-9435 9414 3407 3427 3447 3467 3487 3528 3548 3568 3588 3608 3628 3648 3668 3688 3708 3728 3748 3768 3788 3808 0
-9415 9436 0
-3408 9436 0
-3428 9436 0
-3448 9436 0
-3468 9436 0
-3488 9436 0
-3508 9436 0
-3549 9436 0
-3569 9436 0
-3589 9436 0
-3609 9436 0
-3629 9436 0
-3649 9436 0
-3669 9436 0
-3689 9436 0
-3709 9436 0
-3729 9436 0
-3749 9436 0
-3769 9436 0
-3789 9436 0
-3809 9436 0
-9436 9415 3408 3428 3448 3468 3488 3508 3549 3569 3589 3609 3629 3649 3669 3689 3709 3729 3749 3769 3789 3809 0
-9416 9437 0
-3409 9437 0
-3429 9437 0
-3449 9437 0
-3469 9437 0
-3489 9437 0
-3509 9437 0
-3529 9437 0
-3570 9437 0
-3590 9437 0
-3610 9437 0
-3630 9437 0
-3650 9437 0
-3670 9437 0
-3690 9437 0
-3710 9437 0
-3730 9437 0
-3750 9437 0
-3770 9437 0
-3790 9437 0
-3810 9437 0
-9437 9416 3409 3429 3449 3469 3489 3509 3529 3570 3590 3610 3630 3650 3670 3690 3710 3730 3750 3770 3790 3810 0
-9417 9438 0
-3410 9438 0
-3430 9438 0
-3450 9438 0
-3470 9438 0
-3490 9438 0
-3510 9438 0
-3530 9438 0
-3550 9438 0
-3591 9438 0
-3611 9438 0
-3631 9438 0
-3651 9438 0
-3671 9438 0
-3691 9438 0
-3711 9438 0
-3731 9438 0
-3751 9438 0
-3771 9438 0
-3791 9438 0
-3811 9438 0
-9438 9417 3410 3430 3450 3470 3490 3510 3530 3550 3591 3611 3631 3651 3671 3691 3711 3731 3751 3771 3791 3811 0
-9418 9439 0
-3411 9439 0
-3431 9439 0
-3451 9439 0
-3471 9439 0
-3491 9439 0
-3511 9439 0
-3531 9439 0
-3551 9439 0
-3571 9439 0
-3612 9439 0
-3632 9439 0
-3652 9439 0
-3672 9439 0
-3692 9439 0
-3712 9439 0
-3732 9439 0
-3752 9439 0
-3772 9439 0
-3792 9439 0
-3812 9439 0
-9439 9418 3411 3431 3451 3471 3491 3511 3531 3551 3571 3612 3632 3652 3672 3692 3712 3732 3752 3772 3792 3812 0
-9419 9440 0
-3412 9440 0
-3432 9440 0
-3452 9440 0
-3472 9440 0
-3492 9440 0
-3512 9440 0
-3532 9440 0
-3552 9440 0
-3572 9440 0
-3592 9440 0
-3633 9440 0
-3653 9440 0
-3673 9440 0
-3693 9440 0
-3713 9440 0
-3733 9440 0
-3753 9440 0
-3773 9440 0
-3793 9440 0
-3813 9440 0
-9440 9419 3412 3432 3452 3472 3492 3512 3532 3552 3572 3592 3633 3653 3673 3693 3713 3733 3753 3773 3793 3813 0
-9420 9441 0
-3413 9441 0
-3433 9441 0
-3453 9441 0
-3473 9441 0
-3493 9441 0
-3513 9441 0
-3533 9441 0
-3553 9441 0
-3573 9441 0
-3593 9441 0
-3613 9441 0
-3654 9441 0
-3674 9441 0
-3694 9441 0
-3714 9441 0
-3734 9441 0
-3754 9441 0
-3774 9441 0
-3794 9441 0
-3814 9441 0
-9441 9420 3413 3433 3453 3473 3493 3513 3533 3553 3573 3593 3613 3654 3674 3694 3714 3734 3754 3774 3794 3814 0
-9421 9442 0
-3414 9442 0
-3434 9442 0
-3454 9442 0
-3474 9442 0
-3494 9442 0
-3514 9442 0
-3534 9442 0
-3554 9442 0
-3574 9442 0
-3594 9442 0
-3614 9442 0
-3634 9442 0
-3675 9442 0
-3695 9442 0
-3715 9442 0
-3735 9442 0
-3755 9442 0
-3775 9442 0
-3795 9442 0
-3815 9442 0
-9442 9421 3414 3434 3454 3474 3494 3514 3534 3554 3574 3594 3614 3634 3675 3695 3715 3735 3755 3775 3795 3815 0
-9422 9443 0
-3415 9443 0
-3435 9443 0
-3455 9443 0
-3475 9443 0
-3495 9443 0
-3515 9443 0
-3535 9443 0
-3555 9443 0
-3575 9443 0
-3595 9443 0
-3615 9443 0
-3635 9443 0
-3655 9443 0
-3696 9443 0
-3716 9443 0
-3736 9443 0
-3756 9443 0
-3776 9443 0
-3796 9443 0
-3816 9443 0
-9443 9422 3415 3435 3455 3475 3495 3515 3535 3555 3575 3595 3615 3635 3655 3696 3716 3736 3756 3776 3796 3816 0
-9423 9444 0
-3416 9444 0
-3436 9444 0
-3456 9444 0
-3476 9444 0
-3496 9444 0
-3516 9444 0
-3536 9444 0
-3556 9444 0
-3576 9444 0
-3596 9444 0
-3616 9444 0
-3636 9444 0
-3656 9444 0
-3676 9444 0
-3717 9444 0
-3737 9444 0
-3757 9444 0
-3777 9444 0
-3797 9444 0
-3817 9444 0
-9444 9423 3416 3436 3456 3476 3496 3516 3536 3556 3576 3596 3616 3636 3656 3676 3717 3737 3757 3777 3797 3817 0
-9424 9445 0
-3417 9445 0
-3437 9445 0
-3457 9445 0
-3477 9445 0
-3497 9445 0
-3517 9445 0
-3537 9445 0
-3557 9445 0
-3577 9445 0
-3597 9445 0
-3617 9445 0
-3637 9445 0
-3657 9445 0
-3677 9445 0
-3697 9445 0
-3738 9445 0
-3758 9445 0
-3778 9445 0
-3798 9445 0
-3818 9445 0
-9445 9424 3417 3437 3457 3477 3497 3517 3537 3557 3577 3597 3617 3637 3657 3677 3697 3738 3758 3778 3798 3818 0
-9425 9446 0
-3418 9446 0
-3438 9446 0
-3458 9446 0
-3478 9446 0
-3498 9446 0
-3518 9446 0
-3538 9446 0
-3558 9446 0
-3578 9446 0
-3598 9446 0
-3618 9446 0
-3638 9446 0
-3658 9446 0
-3678 9446 0
-3698 9446 0
-3718 9446 0
-3759 9446 0
-3779 9446 0
-3799 9446 0
-3819 9446 0
-9446 9425 3418 3438 3458 3478 3498 3518 3538 3558 3578 3598 3618 3638 3658 3678 3698 3718 3759 3779 3799 3819 0
-9426 9447 0
-3419 9447 0
-3439 9447 0
-3459 9447 0
-3479 9447 0
-3499 9447 0
-3519 9447 0
-3539 9447 0
-3559 9447 0
-3579 9447 0
-3599 9447 0
-3619 9447 0
-3639 9447 0
-3659 9447 0
-3679 9447 0
-3699 9447 0
-3719 9447 0
-3739 9447 0
-3780 9447 0
-3800 9447 0
-3820 9447 0
-9447 9426 3419 3439 3459 3479 3499 3519 3539 3559 3579 3599 3619 3639 3659 3679 3699 3719 3739 3780 3800 3820 0
-9427 9448 0
-3420 9448 0
-3440 9448 0
-3460 9448 0
-3480 9448 0
-3500 9448 0
-3520 9448 0
-3540 9448 0
-3560 9448 0
-3580 9448 0
-3600 9448 0
-3620 9448 0
-3640 9448 0
-3660 9448 0
-3680 9448 0
-3700 9448 0
-3720 9448 0
-3740 9448 0
-3760 9448 0
-3801 9448 0
-3821 9448 0
-9448 9427 3420 3440 3460 3480 3500 3520 3540 3560 3580 3600 3620 3640 3660 3680 3700 3720 3740 3760 3801 3821 0
-9428 9449 0
-3421 9449 0
-3441 9449 0
-3461 9449 0
-3481 9449 0
-3501 9449 0
-3521 9449 0
-3541 9449 0
-3561 9449 0
-3581 9449 0
-3601 9449 0
-3621 9449 0
-3641 9449 0
-3661 9449 0
-3681 9449 0
-3701 9449 0
-3721 9449 0
-3741 9449 0
-3761 9449 0
-3781 9449 0
-3822 9449 0
-9449 9428 3421 3441 3461 3481 3501 3521 3541 3561 3581 3601 3621 3641 3661 3681 3701 3721 3741 3761 3781 3822 0
-9429 9450 0
-3422 9450 0
-3442 9450 0
-3462 9450 0
-3482 9450 0
-3502 9450 0
-3522 9450 0
-3542 9450 0
-3562 9450 0
-3582 9450 0
-3602 9450 0
-3622 9450 0
-3642 9450 0
-3662 9450 0
-3682 9450 0
-3702 9450 0
-3722 9450 0
-3742 9450 0
-3762 9450 0
-3782 9450 0
-3802 9450 0
-9450 9429 3422 3442 3462 3482 3502 3522 3542 3562 3582 3602 3622 3642 3662 3682 3702 3722 3742 3762 3782 3802 0
-9430 9451 0
-3843 9451 0
-3863 9451 0
-3883 9451 0
-3903 9451 0
-3923 9451 0
-3943 9451 0
-3963 9451 0
-3983 9451 0
-4003 9451 0
-4023 9451 0
-4043 9451 0
-4063 9451 0
-4083 9451 0
-4103 9451 0
-4123 9451 0
-4143 9451 0
-4163 9451 0
-4183 9451 0
-4203 9451 0
-4223 9451 0
-9451 9430 3843 3863 3883 3903 3923 3943 3963 3983 4003 4023 4043 4063 4083 4103 4123 4143 4163 4183 4203 4223 0
-9431 9452 0
-3823 9452 0
-3864 9452 0
-3884 9452 0
-3904 9452 0
-3924 9452 0
-3944 9452 0
-3964 9452 0
-3984 9452 0
-4004 9452 0
-4024 9452 0
-4044 9452 0
-4064 9452 0
-4084 9452 0
-4104 9452 0
-4124 9452 0
-4144 9452 0
-4164 9452 0
-4184 9452 0
-4204 9452 0
-4224 9452 0
-9452 9431 3823 3864 3884 3904 3924 3944 3964 3984 4004 4024 4044 4064 4084 4104 4124 4144 4164 4184 4204 4224 0
-9432 9453 0
-3824 9453 0
-3844 9453 0
-3885 9453 0
-3905 9453 0
-3925 9453 0
-3945 9453 0
-3965 9453 0
-3985 9453 0
-4005 9453 0
-4025 9453 0
-4045 9453 0
-4065 9453 0
-4085 9453 0
-4105 9453 0
-4125 9453 0
-4145 9453 0
-4165 9453 0
-4185 9453 0
-4205 9453 0
-4225 9453 0
-9453 9432 3824 3844 3885 3905 3925 3945 3965 3985 4005 4025 4045 4065 4085 4105 4125 4145 4165 4185 4205 4225 0
-9433 9454 0
-3825 9454 0
-3845 9454 0
-3865 9454 0
-3906 9454 0
-3926 9454 0
-3946 9454 0
-3966 9454 0
-3986 9454 0
-4006 9454 0
-4026 9454 0
-4046 9454 0
-4066 9454 0
-4086 9454 0
-4106 9454 0
-4126 9454 0
-4146 9454 0
-4166 9454 0
-4186 9454 0
-4206 9454 0
-4226 9454 0
-9454 9433 3825 3845 3865 3906 3926 3946 3966 3986 4006 4026 4046 4066 4086 4106 4126 4146 4166 4186 4206 4226 0
-9434 9455 0
-3826 9455 0
-3846 9455 0
-3866 9455 0
-3886 9455 0
-3927 9455 0
-3947 9455 0
-3967 9455 0
-3987 9455 0
-4007 9455 0
-4027 9455 0
-4047 9455 0
-4067 9455 0
-4087 9455 0
-4107 9455 0
-4127 9455 0
-4147 9455 0
-4167 9455 0
-4187 9455 0
-4207 9455 0
-4227 9455 0
-9455 9434 3826 3846 3866 3886 3927 3947 3967 3987 4007 4027 4047 4067 4087 4107 4127 4147 4167 4187 4207 4227 0
-9435 9456 0
-3827 9456 0
-3847 9456 0
-3867 9456 0
-3887 9456 0
-3907 9456 0
-3948 9456 0
-3968 9456 0
-3988 9456 0
-4008 9456 0
-4028 9456 0
-4048 9456 0
-4068 9456 0
-4088 9456 0
-4108 9456 0
-4128 9456 0
-4148 9456 0
-4168 9456 0
-4188 9456 0
-4208 9456 0
-4228 9456 0
-9456 9435 3827 3847 3867 3887 3907 3948 3968 3988 4008 4028 4048 4068 4088 4108 4128 4148 4168 4188 4208 4228 0
-9436 9457 0
-3828 9457 0
-3848 9457 0
-3868 9457 0
-3888 9457 0
-3908 9457 0
-3928 9457 0
-3969 9457 0
-3989 9457 0
-4009 9457 0
-4029 9457 0
-4049 9457 0
-4069 9457 0
-4089 9457 0
-4109 9457 0
-4129 9457 0
-4149 9457 0
-4169 9457 0
-4189 9457 0
-4209 9457 0
-4229 9457 0
-9457 9436 3828 3848 3868 3888 3908 3928 3969 3989 4009 4029 4049 4069 4089 4109 4129 4149 4169 4189 4209 4229 0
-9437 9458 0
-3829 9458 0
-3849 9458 0
-3869 9458 0
-3889 9458 0
-3909 9458 0
-3929 9458 0
-3949 9458 0
-3990 9458 0
-4010 9458 0
-4030 9458 0
-4050 9458 0
-4070 9458 0
-4090 9458 0
-4110 9458 0
-4130 9458 0
-4150 9458 0
-4170 9458 0
-4190 9458 0
-4210 9458 0
-4230 9458 0
-9458 9437 3829 3849 3869 3889 3909 3929 3949 3990 4010 4030 4050 4070 4090 4110 4130 4150 4170 4190 4210 4230 0
-9438 9459 0
-3830 9459 0
-3850 9459 0
-3870 9459 0
-3890 9459 0
-3910 9459 0
-3930 9459 0
-3950 9459 0
-3970 9459 0
-4011 9459 0
-4031 9459 0
-4051 9459 0
-4071 9459 0
-4091 9459 0
-4111 9459 0
-4131 9459 0
-4151 9459 0
-4171 9459 0
-4191 9459 0
-4211 9459 0
-4231 9459 0
-9459 9438 3830 3850 3870 3890 3910 3930 3950 3970 4011 4031 4051 4071 4091 4111 4131 4151 4171 4191 4211 4231 0
-9439 9460 0
-3831 9460 0
-3851 9460 0
-3871 9460 0
-3891 9460 0
-3911 9460 0
-3931 9460 0
-3951 9460 0
-3971 9460 0
-3991 9460 0
-4032 9460 0
-4052 9460 0
-4072 9460 0
-4092 9460 0
-4112 9460 0
-4132 9460 0
-4152 9460 0
-4172 9460 0
-4192 9460 0
-4212 9460 0
-4232 9460 0
-9460 9439 3831 3851 3871 3891 3911 3931 3951 3971 3991 4032 4052 4072 4092 4112 4132 4152 4172 4192 4212 4232 0
-9440 9461 0
-3832 9461 0
-3852 9461 0
-3872 9461 0
-3892 9461 0
-3912 9461 0
-3932 9461 0
-3952 9461 0
-3972 9461 0
-3992 9461 0
-4012 9461 0
-4053 9461 0
-4073 9461 0
-4093 9461 0
-4113 9461 0
-4133 9461 0
-4153 9461 0
-4173 9461 0
-4193 9461 0
-4213 9461 0
-4233 9461 0
-9461 9440 3832 3852 3872 3892 3912 3932 3952 3972 3992 4012 4053 4073 4093 4113 4133 4153 4173 4193 4213 4233 0
-9441 9462 0
-3833 9462 0
-3853 9462 0
-3873 9462 0
-3893 9462 0
-3913 9462 0
-3933 9462 0
-3953 9462 0
-3973 9462 0
-3993 9462 0
-4013 9462 0
-4033 9462 0
-4074 9462 0
-4094 9462 0
-4114 9462 0
-4134 9462 0
-4154 9462 0
-4174 9462 0
-4194 9462 0
-4214 9462 0
-4234 9462 0
-9462 9441 3833 3853 3873 3893 3913 3933 3953 3973 3993 4013 4033 4074 4094 4114 4134 4154 4174 4194 4214 4234 0
-9442 9463 0
-3834 9463 0
-3854 9463 0
-3874 9463 0
-3894 9463 0
-3914 9463 0
-3934 9463 0
-3954 9463 0
-3974 9463 0
-3994 9463 0
-4014 9463 0
-4034 9463 0
-4054 9463 0
-4095 9463 0
-4115 9463 0
-4135 9463 0
-4155 9463 0
-4175 9463 0
-4195 9463 0
-4215 9463 0
-4235 9463 0
-9463 9442 3834 3854 3874 3894 3914 3934 3954 3974 3994 4014 4034 4054 4095 4115 4135 4155 4175 4195 4215 4235 0
-9443 9464 0
-3835 9464 0
-3855 9464 0
-3875 9464 0
-3895 9464 0
-3915 9464 0
-3935 9464 0
-3955 9464 0
-3975 9464 0
-3995 9464 0
-4015 9464 0
-4035 9464 0
-4055 9464 0
-4075 9464 0
-4116 9464 0
-4136 9464 0
-4156 9464 0
-4176 9464 0
-4196 9464 0
-4216 9464 0
-4236 9464 0
-9464 9443 3835 3855 3875 3895 3915 3935 3955 3975 3995 4015 4035 4055 4075 4116 4136 4156 4176 4196 4216 4236 0
-9444 9465 0
-3836 9465 0
-3856 9465 0
-3876 9465 0
-3896 9465 0
-3916 9465 0
-3936 9465 0
-3956 9465 0
-3976 9465 0
-3996 9465 0
-4016 9465 0
-4036 9465 0
-4056 9465 0
-4076 9465 0
-4096 9465 0
-4137 9465 0
-4157 9465 0
-4177 9465 0
-4197 9465 0
-4217 9465 0
-4237 9465 0
-9465 9444 3836 3856 3876 3896 3916 3936 3956 3976 3996 4016 4036 4056 4076 4096 4137 4157 4177 4197 4217 4237 0
-9445 9466 0
-3837 9466 0
-3857 9466 0
-3877 9466 0
-3897 9466 0
-3917 9466 0
-3937 9466 0
-3957 9466 0
-3977 9466 0
-3997 9466 0
-4017 9466 0
-4037 9466 0
-4057 9466 0
-4077 9466 0
-4097 9466 0
-4117 9466 0
-4158 9466 0
-4178 9466 0
-4198 9466 0
-4218 9466 0
-4238 9466 0
-9466 9445 3837 3857 3877 3897 3917 3937 3957 3977 3997 4017 4037 4057 4077 4097 4117 4158 4178 4198 4218 4238 0
-9446 9467 0
-3838 9467 0
-3858 9467 0
-3878 9467 0
-3898 9467 0
-3918 9467 0
-3938 9467 0
-3958 9467 0
-3978 9467 0
-3998 9467 0
-4018 9467 0
-4038 9467 0
-4058 9467 0
-4078 9467 0
-4098 9467 0
-4118 9467 0
-4138 9467 0
-4179 9467 0
-4199 9467 0
-4219 9467 0
-4239 9467 0
-9467 9446 3838 3858 3878 3898 3918 3938 3958 3978 3998 4018 4038 4058 4078 4098 4118 4138 4179 4199 4219 4239 0
-9447 9468 0
-3839 9468 0
-3859 9468 0
-3879 9468 0
-3899 9468 0
-3919 9468 0
-3939 9468 0
-3959 9468 0
-3979 9468 0
-3999 9468 0
-4019 9468 0
-4039 9468 0
-4059 9468 0
-4079 9468 0
-4099 9468 0
-4119 9468 0
-4139 9468 0
-4159 9468 0
-4200 9468 0
-4220 9468 0
-4240 9468 0
-9468 9447 3839 3859 3879 3899 3919 3939 3959 3979 3999 4019 4039 4059 4079 4099 4119 4139 4159 4200 4220 4240 0
-9448 9469 0
-3840 9469 0
-3860 9469 0
-3880 9469 0
-3900 9469 0
-3920 9469 0
-3940 9469 0
-3960 9469 0
-3980 9469 0
-4000 9469 0
-4020 9469 0
-4040 9469 0
-4060 9469 0
-4080 9469 0
-4100 9469 0
-4120 9469 0
-4140 9469 0
-4160 9469 0
-4180 9469 0
-4221 9469 0
-4241 9469 0
-9469 9448 3840 3860 3880 3900 3920 3940 3960 3980 4000 4020 4040 4060 4080 4100 4120 4140 4160 4180 4221 4241 0
-9449 9470 0
-3841 9470 0
-3861 9470 0
-3881 9470 0
-3901 9470 0
-3921 9470 0
-3941 9470 0
-3961 9470 0
-3981 9470 0
-4001 9470 0
-4021 9470 0
-4041 9470 0
-4061 9470 0
-4081 9470 0
-4101 9470 0
-4121 9470 0
-4141 9470 0
-4161 9470 0
-4181 9470 0
-4201 9470 0
-4242 9470 0
-9470 9449 3841 3861 3881 3901 3921 3941 3961 3981 4001 4021 4041 4061 4081 4101 4121 4141 4161 4181 4201 4242 0
-9450 9471 0
-3842 9471 0
-3862 9471 0
-3882 9471 0
-3902 9471 0
-3922 9471 0
-3942 9471 0
-3962 9471 0
-3982 9471 0
-4002 9471 0
-4022 9471 0
-4042 9471 0
-4062 9471 0
-4082 9471 0
-4102 9471 0
-4122 9471 0
-4142 9471 0
-4162 9471 0
-4182 9471 0
-4202 9471 0
-4222 9471 0
-9471 9450 3842 3862 3882 3902 3922 3942 3962 3982 4002 4022 4042 4062 4082 4102 4122 4142 4162 4182 4202 4222 0
-9451 9472 0
-4263 9472 0
-4283 9472 0
-4303 9472 0
-4323 9472 0
-4343 9472 0
-4363 9472 0
-4383 9472 0
-4403 9472 0
-4423 9472 0
-4443 9472 0
-4463 9472 0
-4483 9472 0
-4503 9472 0
-4523 9472 0
-4543 9472 0
-4563 9472 0
-4583 9472 0
-4603 9472 0
-4623 9472 0
-4643 9472 0
-9472 9451 4263 4283 4303 4323 4343 4363 4383 4403 4423 4443 4463 4483 4503 4523 4543 4563 4583 4603 4623 4643 0
-9452 9473 0
-4243 9473 0
-4284 9473 0
-4304 9473 0
-4324 9473 0
-4344 9473 0
-4364 9473 0
-4384 9473 0
-4404 9473 0
-4424 9473 0
-4444 9473 0
-4464 9473 0
-4484 9473 0
-4504 9473 0
-4524 9473 0
-4544 9473 0
-4564 9473 0
-4584 9473 0
-4604 9473 0
-4624 9473 0
-4644 9473 0
-9473 9452 4243 4284 4304 4324 4344 4364 4384 4404 4424 4444 4464 4484 4504 4524 4544 4564 4584 4604 4624 4644 0
-9453 9474 0
-4244 9474 0
-4264 9474 0
-4305 9474 0
-4325 9474 0
-4345 9474 0
-4365 9474 0
-4385 9474 0
-4405 9474 0
-4425 9474 0
-4445 9474 0
-4465 9474 0
-4485 9474 0
-4505 9474 0
-4525 9474 0
-4545 9474 0
-4565 9474 0
-4585 9474 0
-4605 9474 0
-4625 9474 0
-4645 9474 0
-9474 9453 4244 4264 4305 4325 4345 4365 4385 4405 4425 4445 4465 4485 4505 4525 4545 4565 4585 4605 4625 4645 0
-9454 9475 0
-4245 9475 0
-4265 9475 0
-4285 9475 0
-4326 9475 0
-4346 9475 0
-4366 9475 0
-4386 9475 0
-4406 9475 0
-4426 9475 0
-4446 9475 0
-4466 9475 0
-4486 9475 0
-4506 9475 0
-4526 9475 0
-4546 9475 0
-4566 9475 0
-4586 9475 0
-4606 9475 0
-4626 9475 0
-4646 9475 0
-9475 9454 4245 4265 4285 4326 4346 4366 4386 4406 4426 4446 4466 4486 4506 4526 4546 4566 4586 4606 4626 4646 0
-9455 9476 0
-4246 9476 0
-4266 9476 0
-4286 9476 0
-4306 9476 0
-4347 9476 0
-4367 9476 0
-4387 9476 0
-4407 9476 0
-4427 9476 0
-4447 9476 0
-4467 9476 0
-4487 9476 0
-4507 9476 0
-4527 9476 0
-4547 9476 0
-4567 9476 0
-4587 9476 0
-4607 9476 0
-4627 9476 0
-4647 9476 0
-9476 9455 4246 4266 4286 4306 4347 4367 4387 4407 4427 4447 4467 4487 4507 4527 4547 4567 4587 4607 4627 4647 0
-9456 9477 0
-4247 9477 0
-4267 9477 0
-4287 9477 0
-4307 9477 0
-4327 9477 0
-4368 9477 0
-4388 9477 0
-4408 9477 0
-4428 9477 0
-4448 9477 0
-4468 9477 0
-4488 9477 0
-4508 9477 0
-4528 9477 0
-4548 9477 0
-4568 9477 0
-4588 9477 0
-4608 9477 0
-4628 9477 0
-4648 9477 0
-9477 9456 4247 4267 4287 4307 4327 4368 4388 4408 4428 4448 4468 4488 4508 4528 4548 4568 4588 4608 4628 4648 0
-9457 9478 0
-4248 9478 0
-4268 9478 0
-4288 9478 0
-4308 9478 0
-4328 9478 0
-4348 9478 0
-4389 9478 0
-4409 9478 0
-4429 9478 0
-4449 9478 0
-4469 9478 0
-4489 9478 0
-4509 9478 0
-4529 9478 0
-4549 9478 0
-4569 9478 0
-4589 9478 0
-4609 9478 0
-4629 9478 0
-4649 9478 0
-9478 9457 4248 4268 4288 4308 4328 4348 4389 4409 4429 4449 4469 4489 4509 4529 4549 4569 4589 4609 4629 4649 0
-9458 9479 0
-4249 9479 0
-4269 9479 0
-4289 9479 0
-4309 9479 0
-4329 9479 0
-4349 9479 0
-4369 9479 0
-4410 9479 0
-4430 9479 0
-4450 9479 0
-4470 9479 0
-4490 9479 0
-4510 9479 0
-4530 9479 0
-4550 9479 0
-4570 9479 0
-4590 9479 0
-4610 9479 0
-4630 9479 0
-4650 9479 0
-9479 9458 4249 4269 4289 4309 4329 4349 4369 4410 4430 4450 4470 4490 4510 4530 4550 4570 4590 4610 4630 4650 0
-9459 9480 0
-4250 9480 0
-4270 9480 0
-4290 9480 0
-4310 9480 0
-4330 9480 0
-4350 9480 0
-4370 9480 0
-4390 9480 0
-4431 9480 0
-4451 9480 0
-4471 9480 0
-4491 9480 0
-4511 9480 0
-4531 9480 0
-4551 9480 0
-4571 9480 0
-4591 9480 0
-4611 9480 0
-4631 9480 0
-4651 9480 0
-9480 9459 4250 4270 4290 4310 4330 4350 4370 4390 4431 4451 4471 4491 4511 4531 4551 4571 4591 4611 4631 4651 0
-9460 9481 0
-4251 9481 0
-4271 9481 0
-4291 9481 0
-4311 9481 0
-4331 9481 0
-4351 9481 0
-4371 9481 0
-4391 9481 0
-4411 9481 0
-4452 9481 0
-4472 9481 0
-4492 9481 0
-4512 9481 0
-4532 9481 0
-4552 9481 0
-4572 9481 0
-4592 9481 0
-4612 9481 0
-4632 9481 0
-4652 9481 0
-9481 9460 4251 4271 4291 4311 4331 4351 4371 4391 4411 4452 4472 4492 4512 4532 4552 4572 4592 4612 4632 4652 0
-9461 9482 0
-4252 9482 0
-4272 9482 0
-4292 9482 0
-4312 9482 0
-4332 9482 0
-4352 9482 0
-4372 9482 0
-4392 9482 0
-4412 9482 0
-4432 9482 0
-4473 9482 0
-4493 9482 0
-4513 9482 0
-4533 9482 0
-4553 9482 0
-4573 9482 0
-4593 9482 0
-4613 9482 0
-4633 9482 0
-4653 9482 0
-9482 9461 4252 4272 4292 4312 4332 4352 4372 4392 4412 4432 4473 4493 4513 4533 4553 4573 4593 4613 4633 4653 0
-9462 9483 0
-4253 9483 0
-4273 9483 0
-4293 9483 0
-4313 9483 0
-4333 9483 0
-4353 9483 0
-4373 9483 0
-4393 9483 0
-4413 9483 0
-4433 9483 0
-4453 9483 0
-4494 9483 0
-4514 9483 0
-4534 9483 0
-4554 9483 0
-4574 9483 0
-4594 9483 0
-4614 9483 0
-4634 9483 0
-4654 9483 0
-9483 9462 4253 4273 4293 4313 4333 4353 4373 4393 4413 4433 4453 4494 4514 4534 4554 4574 4594 4614 4634 4654 0
-9463 9484 0
-4254 9484 0
-4274 9484 0
-4294 9484 0
-4314 9484 0
-4334 9484 0
-4354 9484 0
-4374 9484 0
-4394 9484 0
-4414 9484 0
-4434 9484 0
-4454 9484 0
-4474 9484 0
-4515 9484 0
-4535 9484 0
-4555 9484 0
-4575 9484 0
-4595 9484 0
-4615 9484 0
-4635 9484 0
-4655 9484 0
-9484 9463 4254 4274 4294 4314 4334 4354 4374 4394 4414 4434 4454 4474 4515 4535 4555 4575 4595 4615 4635 4655 0
-9464 9485 0
-4255 9485 0
-4275 9485 0
-4295 9485 0
-4315 9485 0
-4335 9485 0
-4355 9485 0
-4375 9485 0
-4395 9485 0
-4415 9485 0
-4435 9485 0
-4455 9485 0
-4475 9485 0
-4495 9485 0
-4536 9485 0
-4556 9485 0
-4576 9485 0
-4596 9485 0
-4616 9485 0
-4636 9485 0
-4656 9485 0
-9485 9464 4255 4275 4295 4315 4335 4355 4375 4395 4415 4435 4455 4475 4495 4536 4556 4576 4596 4616 4636 4656 0
-9465 9486 0
-4256 9486 0
-4276 9486 0
-4296 9486 0
-4316 9486 0
-4336 9486 0
-4356 9486 0
-4376 9486 0
-4396 9486 0
-4416 9486 0
-4436 9486 0
-4456 9486 0
-4476 9486 0
-4496 9486 0
-4516 9486 0
-4557 9486 0
-4577 9486 0
-4597 9486 0
-4617 9486 0
-4637 9486 0
-4657 9486 0
-9486 9465 4256 4276 4296 4316 4336 4356 4376 4396 4416 4436 4456 4476 4496 4516 4557 4577 4597 4617 4637 4657 0
-9466 9487 0
-4257 9487 0
-4277 9487 0
-4297 9487 0
-4317 9487 0
-4337 9487 0
-4357 9487 0
-4377 9487 0
-4397 9487 0
-4417 9487 0
-4437 9487 0
-4457 9487 0
-4477 9487 0
-4497 9487 0
-4517 9487 0
-4537 9487 0
-4578 9487 0
-4598 9487 0
-4618 9487 0
-4638 9487 0
-4658 9487 0
-9487 9466 4257 4277 4297 4317 4337 4357 4377 4397 4417 4437 4457 4477 4497 4517 4537 4578 4598 4618 4638 4658 0
-9467 9488 0
-4258 9488 0
-4278 9488 0
-4298 9488 0
-4318 9488 0
-4338 9488 0
-4358 9488 0
-4378 9488 0
-4398 9488 0
-4418 9488 0
-4438 9488 0
-4458 9488 0
-4478 9488 0
-4498 9488 0
-4518 9488 0
-4538 9488 0
-4558 9488 0
-4599 9488 0
-4619 9488 0
-4639 9488 0
-4659 9488 0
-9488 9467 4258 4278 4298 4318 4338 4358 4378 4398 4418 4438 4458 4478 4498 4518 4538 4558 4599 4619 4639 4659 0
-9468 9489 0
-4259 9489 0
-4279 9489 0
-4299 9489 0
-4319 9489 0
-4339 9489 0
-4359 9489 0
-4379 9489 0
-4399 9489 0
-4419 9489 0
-4439 9489 0
-4459 9489 0
-4479 9489 0
-4499 9489 0
-4519 9489 0
-4539 9489 0
-4559 9489 0
-4579 9489 0
-4620 9489 0
-4640 9489 0
-4660 9489 0
-9489 9468 4259 4279 4299 4319 4339 4359 4379 4399 4419 4439 4459 4479 4499 4519 4539 4559 4579 4620 4640 4660 0
-9469 9490 0
-4260 9490 0
-4280 9490 0
-4300 9490 0
-4320 9490 0
-4340 9490 0
-4360 9490 0
-4380 9490 0
-4400 9490 0
-4420 9490 0
-4440 9490 0
-4460 9490 0
-4480 9490 0
-4500 9490 0
-4520 9490 0
-4540 9490 0
-4560 9490 0
-4580 9490 0
-4600 9490 0
-4641 9490 0
-4661 9490 0
-9490 9469 4260 4280 4300 4320 4340 4360 4380 4400 4420 4440 4460 4480 4500 4520 4540 4560 4580 4600 4641 4661 0
-9470 9491 0
-4261 9491 0
-4281 9491 0
-4301 9491 0
-4321 9491 0
-4341 9491 0
-4361 9491 0
-4381 9491 0
-4401 9491 0
-4421 9491 0
-4441 9491 0
-4461 9491 0
-4481 9491 0
-4501 9491 0
-4521 9491 0
-4541 9491 0
-4561 9491 0
-4581 9491 0
-4601 9491 0
-4621 9491 0
-4662 9491 0
-9491 9470 4261 4281 4301 4321 4341 4361 4381 4401 4421 4441 4461 4481 4501 4521 4541 4561 4581 4601 4621 4662 0
-9471 9492 0
-4262 9492 0
-4282 9492 0
-4302 9492 0
-4322 9492 0
-4342 9492 0
-4362 9492 0
-4382 9492 0
-4402 9492 0
-4422 9492 0
-4442 9492 0
-4462 9492 0
-4482 9492 0
-4502 9492 0
-4522 9492 0
-4542 9492 0
-4562 9492 0
-4582 9492 0
-4602 9492 0
-4622 9492 0
-4642 9492 0
-9492 9471 4262 4282 4302 4322 4342 4362 4382 4402 4422 4442 4462 4482 4502 4522 4542 4562 4582 4602 4622 4642 0
-9472 9493 0
-4683 9493 0
-4703 9493 0
-4723 9493 0
-4743 9493 0
-4763 9493 0
-4783 9493 0
-4803 9493 0
-4823 9493 0
-4843 9493 0
-4863 9493 0
-4883 9493 0
-4903 9493 0
-4923 9493 0
-4943 9493 0
-4963 9493 0
-4983 9493 0
-5003 9493 0
-5023 9493 0
-5043 9493 0
-5063 9493 0
-9493 9472 4683 4703 4723 4743 4763 4783 4803 4823 4843 4863 4883 4903 4923 4943 4963 4983 5003 5023 5043 5063 0
-9473 9494 0
-4663 9494 0
-4704 9494 0
-4724 9494 0
-4744 9494 0
-4764 9494 0
-4784 9494 0
-4804 9494 0
-4824 9494 0
-4844 9494 0
-4864 9494 0
-4884 9494 0
-4904 9494 0
-4924 9494 0
-4944 9494 0
-4964 9494 0
-4984 9494 0
-5004 9494 0
-5024 9494 0
-5044 9494 0
-5064 9494 0
-9494 9473 4663 4704 4724 4744 4764 4784 4804 4824 4844 4864 4884 4904 4924 4944 4964 4984 5004 5024 5044 5064 0
-9474 9495 0
-4664 9495 0
-4684 9495 0
-4725 9495 0
-4745 9495 0
-4765 9495 0
-4785 9495 0
-4805 9495 0
-4825 9495 0
-4845 9495 0
-4865 9495 0
-4885 9495 0
-4905 9495 0
-4925 9495 0
-4945 9495 0
-4965 9495 0
-4985 9495 0
-5005 9495 0
-5025 9495 0
-5045 9495 0
-5065 9495 0
-9495 9474 4664 4684 4725 4745 4765 4785 4805 4825 4845 4865 4885 4905 4925 4945 4965 4985 5005 5025 5045 5065 0
-9475 9496 0
-4665 9496 0
-4685 9496 0
-4705 9496 0
-4746 9496 0
-4766 9496 0
-4786 9496 0
-4806 9496 0
-4826 9496 0
-4846 9496 0
-4866 9496 0
-4886 9496 0
-4906 9496 0
-4926 9496 0
-4946 9496 0
-4966 9496 0
-4986 9496 0
-5006 9496 0
-5026 9496 0
-5046 9496 0
-5066 9496 0
-9496 9475 4665 4685 4705 4746 4766 4786 4806 4826 4846 4866 4886 4906 4926 4946 4966 4986 5006 5026 5046 5066 0
-9476 9497 0
-4666 9497 0
-4686 9497 0
-4706 9497 0
-4726 9497 0
-4767 9497 0
-4787 9497 0
-4807 9497 0
-4827 9497 0
-4847 9497 0
-4867 9497 0
-4887 9497 0
-4907 9497 0
-4927 9497 0
-4947 9497 0
-4967 9497 0
-4987 9497 0
-5007 9497 0
-5027 9497 0
-5047 9497 0
-5067 9497 0
-9497 9476 4666 4686 4706 4726 4767 4787 4807 4827 4847 4867 4887 4907 4927 4947 4967 4987 5007 5027 5047 5067 0
-9477 9498 0
-4667 9498 0
-4687 9498 0
-4707 9498 0
-4727 9498 0
-4747 9498 0
-4788 9498 0
-4808 9498 0
-4828 9498 0
-4848 9498 0
-4868 9498 0
-4888 9498 0
-4908 9498 0
-4928 9498 0
-4948 9498 0
-4968 9498 0
-4988 9498 0
-5008 9498 0
-5028 9498 0
-5048 9498 0
-5068 9498 0
-9498 9477 4667 4687 4707 4727 4747 4788 4808 4828 4848 4868 4888 4908 4928 4948 4968 4988 5008 5028 5048 5068 0
-9478 9499 0
-4668 9499 0
-4688 9499 0
-4708 9499 0
-4728 9499 0
-4748 9499 0
-4768 9499 0
-4809 9499 0
-4829 9499 0
-4849 9499 0
-4869 9499 0
-4889 9499 0
-4909 9499 0
-4929 9499 0
-4949 9499 0
-4969 9499 0
-4989 9499 0
-5009 9499 0
-5029 9499 0
-5049 9499 0
-5069 9499 0
-9499 9478 4668 4688 4708 4728 4748 4768 4809 4829 4849 4869 4889 4909 4929 4949 4969 4989 5009 5029 5049 5069 0
-9479 9500 0
-4669 9500 0
-4689 9500 0
-4709 9500 0
-4729 9500 0
-4749 9500 0
-4769 9500 0
-4789 9500 0
-4830 9500 0
-4850 9500 0
-4870 9500 0
-4890 9500 0
-4910 9500 0
-4930 9500 0
-4950 9500 0
-4970 9500 0
-4990 9500 0
-5010 9500 0
-5030 9500 0
-5050 9500 0
-5070 9500 0
-9500 9479 4669 4689 4709 4729 4749 4769 4789 4830 4850 4870 4890 4910 4930 4950 4970 4990 5010 5030 5050 5070 0
-9480 9501 0
-4670 9501 0
-4690 9501 0
-4710 9501 0
-4730 9501 0
-4750 9501 0
-4770 9501 0
-4790 9501 0
-4810 9501 0
-4851 9501 0
-4871 9501 0
-4891 9501 0
-4911 9501 0
-4931 9501 0
-4951 9501 0
-4971 9501 0
-4991 9501 0
-5011 9501 0
-5031 9501 0
-5051 9501 0
-5071 9501 0
-9501 9480 4670 4690 4710 4730 4750 4770 4790 4810 4851 4871 4891 4911 4931 4951 4971 4991 5011 5031 5051 5071 0
-9481 9502 0
-4671 9502 0
-4691 9502 0
-4711 9502 0
-4731 9502 0
-4751 9502 0
-4771 9502 0
-4791 9502 0
-4811 9502 0
-4831 9502 0
-4872 9502 0
-4892 9502 0
-4912 9502 0
-4932 9502 0
-4952 9502 0
-4972 9502 0
-4992 9502 0
-5012 9502 0
-5032 9502 0
-5052 9502 0
-5072 9502 0
-9502 9481 4671 4691 4711 4731 4751 4771 4791 4811 4831 4872 4892 4912 4932 4952 4972 4992 5012 5032 5052 5072 0
-9482 9503 0
-4672 9503 0
-4692 9503 0
-4712 9503 0
-4732 9503 0
-4752 9503 0
-4772 9503 0
-4792 9503 0
-4812 9503 0
-4832 9503 0
-4852 9503 0
-4893 9503 0
-4913 9503 0
-4933 9503 0
-4953 9503 0
-4973 9503 0
-4993 9503 0
-5013 9503 0
-5033 9503 0
-5053 9503 0
-5073 9503 0
-9503 9482 4672 4692 4712 4732 4752 4772 4792 4812 4832 4852 4893 4913 4933 4953 4973 4993 5013 5033 5053 5073 0
-9483 9504 0
-4673 9504 0
-4693 9504 0
-4713 9504 0
-4733 9504 0
-4753 9504 0
-4773 9504 0
-4793 9504 0
-4813 9504 0
-4833 9504 0
-4853 9504 0
-4873 9504 0
-4914 9504 0
-4934 9504 0
-4954 9504 0
-4974 9504 0
-4994 9504 0
-5014 9504 0
-5034 9504 0
-5054 9504 0
-5074 9504 0
-9504 9483 4673 4693 4713 4733 4753 4773 4793 4813 4833 4853 4873 4914 4934 4954 4974 4994 5014 5034 5054 5074 0
-9484 9505 0
-4674 9505 0
-4694 9505 0
-4714 9505 0
-4734 9505 0
-4754 9505 0
-4774 9505 0
-4794 9505 0
-4814 9505 0
-4834 9505 0
-4854 9505 0
-4874 9505 0
-4894 9505 0
-4935 9505 0
-4955 9505 0
-4975 9505 0
-4995 9505 0
-5015 9505 0
-5035 9505 0
-5055 9505 0
-5075 9505 0
-9505 9484 4674 4694 4714 4734 4754 4774 4794 4814 4834 4854 4874 4894 4935 4955 4975 4995 5015 5035 5055 5075 0
-9485 9506 0
-4675 9506 0
-4695 9506 0
-4715 9506 0
-4735 9506 0
-4755 9506 0
-4775 9506 0
-4795 9506 0
-4815 9506 0
-4835 9506 0
-4855 9506 0
-4875 9506 0
-4895 9506 0
-4915 9506 0
-4956 9506 0
-4976 9506 0
-4996 9506 0
-5016 9506 0
-5036 9506 0
-5056 9506 0
-5076 9506 0
-9506 9485 4675 4695 4715 4735 4755 4775 4795 4815 4835 4855 4875 4895 4915 4956 4976 4996 5016 5036 5056 5076 0
-9486 9507 0
-4676 9507 0
-4696 9507 0
-4716 9507 0
-4736 9507 0
-4756 9507 0
-4776 9507 0
-4796 9507 0
-4816 9507 0
-4836 9507 0
-4856 9507 0
-4876 9507 0
-4896 9507 0
-4916 9507 0
-4936 9507 0
-4977 9507 0
-4997 9507 0
-5017 9507 0
-5037 9507 0
-5057 9507 0
-5077 9507 0
-9507 9486 4676 4696 4716 4736 4756 4776 4796 4816 4836 4856 4876 4896 4916 4936 4977 4997 5017 5037 5057 5077 0
-9487 9508 0
-4677 9508 0
-4697 9508 0
-4717 9508 0
-4737 9508 0
-4757 9508 0
-4777 9508 0
-4797 9508 0
-4817 9508 0
-4837 9508 0
-4857 9508 0
-4877 9508 0
-4897 9508 0
-4917 9508 0
-4937 9508 0
-4957 9508 0
-4998 9508 0
-5018 9508 0
-5038 9508 0
-5058 9508 0
-5078 9508 0
-9508 9487 4677 4697 4717 4737 4757 4777 4797 4817 4837 4857 4877 4897 4917 4937 4957 4998 5018 5038 5058 5078 0
-9488 9509 0
-4678 9509 0
-4698 9509 0
-4718 9509 0
-4738 9509 0
-4758 9509 0
-4778 9509 0
-4798 9509 0
-4818 9509 0
-4838 9509 0
-4858 9509 0
-4878 9509 0
-4898 9509 0
-4918 9509 0
-4938 9509 0
-4958 9509 0
-4978 9509 0
-5019 9509 0
-5039 9509 0
-5059 9509 0
-5079 9509 0
-9509 9488 4678 4698 4718 4738 4758 4778 4798 4818 4838 4858 4878 4898 4918 4938 4958 4978 5019 5039 5059 5079 0
-9489 9510 0
-4679 9510 0
-4699 9510 0
-4719 9510 0
-4739 9510 0
-4759 9510 0
-4779 9510 0
-4799 9510 0
-4819 9510 0
-4839 9510 0
-4859 9510 0
-4879 9510 0
-4899 9510 0
-4919 9510 0
-4939 9510 0
-4959 9510 0
-4979 9510 0
-4999 9510 0
-5040 9510 0
-5060 9510 0
-5080 9510 0
-9510 9489 4679 4699 4719 4739 4759 4779 4799 4819 4839 4859 4879 4899 4919 4939 4959 4979 4999 5040 5060 5080 0
-9490 9511 0
-4680 9511 0
-4700 9511 0
-4720 9511 0
-4740 9511 0
-4760 9511 0
-4780 9511 0
-4800 9511 0
-4820 9511 0
-4840 9511 0
-4860 9511 0
-4880 9511 0
-4900 9511 0
-4920 9511 0
-4940 9511 0
-4960 9511 0
-4980 9511 0
-5000 9511 0
-5020 9511 0
-5061 9511 0
-5081 9511 0
-9511 9490 4680 4700 4720 4740 4760 4780 4800 4820 4840 4860 4880 4900 4920 4940 4960 4980 5000 5020 5061 5081 0
-9491 9512 0
-4681 9512 0
-4701 9512 0
-4721 9512 0
-4741 9512 0
-4761 9512 0
-4781 9512 0
-4801 9512 0
-4821 9512 0
-4841 9512 0
-4861 9512 0
-4881 9512 0
-4901 9512 0
-4921 9512 0
-4941 9512 0
-4961 9512 0
-4981 9512 0
-5001 9512 0
-5021 9512 0
-5041 9512 0
-5082 9512 0
-9512 9491 4681 4701 4721 4741 4761 4781 4801 4821 4841 4861 4881 4901 4921 4941 4961 4981 5001 5021 5041 5082 0
-9492 9513 0
-4682 9513 0
-4702 9513 0
-4722 9513 0
-4742 9513 0
-4762 9513 0
-4782 9513 0
-4802 9513 0
-4822 9513 0
-4842 9513 0
-4862 9513 0
-4882 9513 0
-4902 9513 0
-4922 9513 0
-4942 9513 0
-4962 9513 0
-4982 9513 0
-5002 9513 0
-5022 9513 0
-5042 9513 0
-5062 9513 0
-9513 9492 4682 4702 4722 4742 4762 4782 4802 4822 4842 4862 4882 4902 4922 4942 4962 4982 5002 5022 5042 5062 0
-9493 9514 0
-5103 9514 0
-5123 9514 0
-5143 9514 0
-5163 9514 0
-5183 9514 0
-5203 9514 0
-5223 9514 0
-5243 9514 0
-5263 9514 0
-5283 9514 0
-5303 9514 0
-5323 9514 0
-5343 9514 0
-5363 9514 0
-5383 9514 0
-5403 9514 0
-5423 9514 0
-5443 9514 0
-5463 9514 0
-5483 9514 0
-9514 9493 5103 5123 5143 5163 5183 5203 5223 5243 5263 5283 5303 5323 5343 5363 5383 5403 5423 5443 5463 5483 0
-9494 9515 0
-5083 9515 0
-5124 9515 0
-5144 9515 0
-5164 9515 0
-5184 9515 0
-5204 9515 0
-5224 9515 0
-5244 9515 0
-5264 9515 0
-5284 9515 0
-5304 9515 0
-5324 9515 0
-5344 9515 0
-5364 9515 0
-5384 9515 0
-5404 9515 0
-5424 9515 0
-5444 9515 0
-5464 9515 0
-5484 9515 0
-9515 9494 5083 5124 5144 5164 5184 5204 5224 5244 5264 5284 5304 5324 5344 5364 5384 5404 5424 5444 5464 5484 0
-9495 9516 0
-5084 9516 0
-5104 9516 0
-5145 9516 0
-5165 9516 0
-5185 9516 0
-5205 9516 0
-5225 9516 0
-5245 9516 0
-5265 9516 0
-5285 9516 0
-5305 9516 0
-5325 9516 0
-5345 9516 0
-5365 9516 0
-5385 9516 0
-5405 9516 0
-5425 9516 0
-5445 9516 0
-5465 9516 0
-5485 9516 0
-9516 9495 5084 5104 5145 5165 5185 5205 5225 5245 5265 5285 5305 5325 5345 5365 5385 5405 5425 5445 5465 5485 0
-9496 9517 0
-5085 9517 0
-5105 9517 0
-5125 9517 0
-5166 9517 0
-5186 9517 0
-5206 9517 0
-5226 9517 0
-5246 9517 0
-5266 9517 0
-5286 9517 0
-5306 9517 0
-5326 9517 0
-5346 9517 0
-5366 9517 0
-5386 9517 0
-5406 9517 0
-5426 9517 0
-5446 9517 0
-5466 9517 0
-5486 9517 0
-9517 9496 5085 5105 5125 5166 5186 5206 5226 5246 5266 5286 5306 5326 5346 5366 5386 5406 5426 5446 5466 5486 0
-9497 9518 0
-5086 9518 0
-5106 9518 0
-5126 9518 0
-5146 9518 0
-5187 9518 0
-5207 9518 0
-5227 9518 0
-5247 9518 0
-5267 9518 0
-5287 9518 0
-5307 9518 0
-5327 9518 0
-5347 9518 0
-5367 9518 0
-5387 9518 0
-5407 9518 0
-5427 9518 0
-5447 9518 0
-5467 9518 0
-5487 9518 0
-9518 9497 5086 5106 5126 5146 5187 5207 5227 5247 5267 5287 5307 5327 5347 5367 5387 5407 5427 5447 5467 5487 0
-9498 9519 0
-5087 9519 0
-5107 9519 0
-5127 9519 0
-5147 9519 0
-5167 9519 0
-5208 9519 0
-5228 9519 0
-5248 9519 0
-5268 9519 0
-5288 9519 0
-5308 9519 0
-5328 9519 0
-5348 9519 0
-5368 9519 0
-5388 9519 0
-5408 9519 0
-5428 9519 0
-5448 9519 0
-5468 9519 0
-5488 9519 0
-9519 9498 5087 5107 5127 5147 5167 5208 5228 5248 5268 5288 5308 5328 5348 5368 5388 5408 5428 5448 5468 5488 0
-9499 9520 0
-5088 9520 0
-5108 9520 0
-5128 9520 0
-5148 9520 0
-5168 9520 0
-5188 9520 0
-5229 9520 0
-5249 9520 0
-5269 9520 0
-5289 9520 0
-5309 9520 0
-5329 9520 0
-5349 9520 0
-5369 9520 0
-5389 9520 0
-5409 9520 0
-5429 9520 0
-5449 9520 0
-5469 9520 0
-5489 9520 0
-9520 9499 5088 5108 5128 5148 5168 5188 5229 5249 5269 5289 5309 5329 5349 5369 5389 5409 5429 5449 5469 5489 0
-9500 9521 0
-5089 9521 0
-5109 9521 0
-5129 9521 0
-5149 9521 0
-5169 9521 0
-5189 9521 0
-5209 9521 0
-5250 9521 0
-5270 9521 0
-5290 9521 0
-5310 9521 0
-5330 9521 0
-5350 9521 0
-5370 9521 0
-5390 9521 0
-5410 9521 0
-5430 9521 0
-5450 9521 0
-5470 9521 0
-5490 9521 0
-9521 9500 5089 5109 5129 5149 5169 5189 5209 5250 5270 5290 5310 5330 5350 5370 5390 5410 5430 5450 5470 5490 0
-9501 9522 0
-5090 9522 0
-5110 9522 0
-5130 9522 0
-5150 9522 0
-5170 9522 0
-5190 9522 0
-5210 9522 0
-5230 9522 0
-5271 9522 0
-5291 9522 0
-5311 9522 0
-5331 9522 0
-5351 9522 0
-5371 9522 0
-5391 9522 0
-5411 9522 0
-5431 9522 0
-5451 9522 0
-5471 9522 0
-5491 9522 0
-9522 9501 5090 5110 5130 5150 5170 5190 5210 5230 5271 5291 5311 5331 5351 5371 5391 5411 5431 5451 5471 5491 0
-9502 9523 0
-5091 9523 0
-5111 9523 0
-5131 9523 0
-5151 9523 0
-5171 9523 0
-5191 9523 0
-5211 9523 0
-5231 9523 0
-5251 9523 0
-5292 9523 0
-5312 9523 0
-5332 9523 0
-5352 9523 0
-5372 9523 0
-5392 9523 0
-5412 9523 0
-5432 9523 0
-5452 9523 0
-5472 9523 0
-5492 9523 0
-9523 9502 5091 5111 5131 5151 5171 5191 5211 5231 5251 5292 5312 5332 5352 5372 5392 5412 5432 5452 5472 5492 0
-9503 9524 0
-5092 9524 0
-5112 9524 0
-5132 9524 0
-5152 9524 0
-5172 9524 0
-5192 9524 0
-5212 9524 0
-5232 9524 0
-5252 9524 0
-5272 9524 0
-5313 9524 0
-5333 9524 0
-5353 9524 0
-5373 9524 0
-5393 9524 0
-5413 9524 0
-5433 9524 0
-5453 9524 0
-5473 9524 0
-5493 9524 0
-9524 9503 5092 5112 5132 5152 5172 5192 5212 5232 5252 5272 5313 5333 5353 5373 5393 5413 5433 5453 5473 5493 0
-9504 9525 0
-5093 9525 0
-5113 9525 0
-5133 9525 0
-5153 9525 0
-5173 9525 0
-5193 9525 0
-5213 9525 0
-5233 9525 0
-5253 9525 0
-5273 9525 0
-5293 9525 0
-5334 9525 0
-5354 9525 0
-5374 9525 0
-5394 9525 0
-5414 9525 0
-5434 9525 0
-5454 9525 0
-5474 9525 0
-5494 9525 0
-9525 9504 5093 5113 5133 5153 5173 5193 5213 5233 5253 5273 5293 5334 5354 5374 5394 5414 5434 5454 5474 5494 0
-9505 9526 0
-5094 9526 0
-5114 9526 0
-5134 9526 0
-5154 9526 0
-5174 9526 0
-5194 9526 0
-5214 9526 0
-5234 9526 0
-5254 9526 0
-5274 9526 0
-5294 9526 0
-5314 9526 0
-5355 9526 0
-5375 9526 0
-5395 9526 0
-5415 9526 0
-5435 9526 0
-5455 9526 0
-5475 9526 0
-5495 9526 0
-9526 9505 5094 5114 5134 5154 5174 5194 5214 5234 5254 5274 5294 5314 5355 5375 5395 5415 5435 5455 5475 5495 0
-9506 9527 0
-5095 9527 0
-5115 9527 0
-5135 9527 0
-5155 9527 0
-5175 9527 0
-5195 9527 0
-5215 9527 0
-5235 9527 0
-5255 9527 0
-5275 9527 0
-5295 9527 0
-5315 9527 0
-5335 9527 0
-5376 9527 0
-5396 9527 0
-5416 9527 0
-5436 9527 0
-5456 9527 0
-5476 9527 0
-5496 9527 0
-9527 9506 5095 5115 5135 5155 5175 5195 5215 5235 5255 5275 5295 5315 5335 5376 5396 5416 5436 5456 5476 5496 0
-9507 9528 0
-5096 9528 0
-5116 9528 0
-5136 9528 0
-5156 9528 0
-5176 9528 0
-5196 9528 0
-5216 9528 0
-5236 9528 0
-5256 9528 0
-5276 9528 0
-5296 9528 0
-5316 9528 0
-5336 9528 0
-5356 9528 0
-5397 9528 0
-5417 9528 0
-5437 9528 0
-5457 9528 0
-5477 9528 0
-5497 9528 0
-9528 9507 5096 5116 5136 5156 5176 5196 5216 5236 5256 5276 5296 5316 5336 5356 5397 5417 5437 5457 5477 5497 0
-9508 9529 0
-5097 9529 0
-5117 9529 0
-5137 9529 0
-5157 9529 0
-5177 9529 0
-5197 9529 0
-5217 9529 0
-5237 9529 0
-5257 9529 0
-5277 9529 0
-5297 9529 0
-5317 9529 0
-5337 9529 0
-5357 9529 0
-5377 9529 0
-5418 9529 0
-5438 9529 0
-5458 9529 0
-5478 9529 0
-5498 9529 0
-9529 9508 5097 5117 5137 5157 5177 5197 5217 5237 5257 5277 5297 5317 5337 5357 5377 5418 5438 5458 5478 5498 0
-9509 9530 0
-5098 9530 0
-5118 9530 0
-5138 9530 0
-5158 9530 0
-5178 9530 0
-5198 9530 0
-5218 9530 0
-5238 9530 0
-5258 9530 0
-5278 9530 0
-5298 9530 0
-5318 9530 0
-5338 9530 0
-5358 9530 0
-5378 9530 0
-5398 9530 0
-5439 9530 0
-5459 9530 0
-5479 9530 0
-5499 9530 0
-9530 9509 5098 5118 5138 5158 5178 5198 5218 5238 5258 5278 5298 5318 5338 5358 5378 5398 5439 5459 5479 5499 0
-9510 9531 0
-5099 9531 0
-5119 9531 0
-5139 9531 0
-5159 9531 0
-5179 9531 0
-5199 9531 0
-5219 9531 0
-5239 9531 0
-5259 9531 0
-5279 9531 0
-5299 9531 0
-5319 9531 0
-5339 9531 0
-5359 9531 0
-5379 9531 0
-5399 9531 0
-5419 9531 0
-5460 9531 0
-5480 9531 0
-5500 9531 0
-9531 9510 5099 5119 5139 5159 5179 5199 5219 5239 5259 5279 5299 5319 5339 5359 5379 5399 5419 5460 5480 5500 0
-9511 9532 0
-5100 9532 0
-5120 9532 0
-5140 9532 0
-5160 9532 0
-5180 9532 0
-5200 9532 0
-5220 9532 0
-5240 9532 0
-5260 9532 0
-5280 9532 0
-5300 9532 0
-5320 9532 0
-5340 9532 0
-5360 9532 0
-5380 9532 0
-5400 9532 0
-5420 9532 0
-5440 9532 0
-5481 9532 0
-5501 9532 0
-9532 9511 5100 5120 5140 5160 5180 5200 5220 5240 5260 5280 5300 5320 5340 5360 5380 5400 5420 5440 5481 5501 0
-9512 9533 0
-5101 9533 0
-5121 9533 0
-5141 9533 0
-5161 9533 0
-5181 9533 0
-5201 9533 0
-5221 9533 0
-5241 9533 0
-5261 9533 0
-5281 9533 0
-5301 9533 0
-5321 9533 0
-5341 9533 0
-5361 9533 0
-5381 9533 0
-5401 9533 0
-5421 9533 0
-5441 9533 0
-5461 9533 0
-5502 9533 0
-9533 9512 5101 5121 5141 5161 5181 5201 5221 5241 5261 5281 5301 5321 5341 5361 5381 5401 5421 5441 5461 5502 0
-9513 9534 0
-5102 9534 0
-5122 9534 0
-5142 9534 0
-5162 9534 0
-5182 9534 0
-5202 9534 0
-5222 9534 0
-5242 9534 0
-5262 9534 0
-5282 9534 0
-5302 9534 0
-5322 9534 0
-5342 9534 0
-5362 9534 0
-5382 9534 0
-5402 9534 0
-5422 9534 0
-5442 9534 0
-5462 9534 0
-5482 9534 0
-9534 9513 5102 5122 5142 5162 5182 5202 5222 5242 5262 5282 5302 5322 5342 5362 5382 5402 5422 5442 5462 5482 0
-9514 9535 0
-5523 9535 0
-5543 9535 0
-5563 9535 0
-5583 9535 0
-5603 9535 0
-5623 9535 0
-5643 9535 0
-5663 9535 0
-5683 9535 0
-5703 9535 0
-5723 9535 0
-5743 9535 0
-5763 9535 0
-5783 9535 0
-5803 9535 0
-5823 9535 0
-5843 9535 0
-5863 9535 0
-5883 9535 0
-5903 9535 0
-9535 9514 5523 5543 5563 5583 5603 5623 5643 5663 5683 5703 5723 5743 5763 5783 5803 5823 5843 5863 5883 5903 0
-9515 9536 0
-5503 9536 0
-5544 9536 0
-5564 9536 0
-5584 9536 0
-5604 9536 0
-5624 9536 0
-5644 9536 0
-5664 9536 0
-5684 9536 0
-5704 9536 0
-5724 9536 0
-5744 9536 0
-5764 9536 0
-5784 9536 0
-5804 9536 0
-5824 9536 0
-5844 9536 0
-5864 9536 0
-5884 9536 0
-5904 9536 0
-9536 9515 5503 5544 5564 5584 5604 5624 5644 5664 5684 5704 5724 5744 5764 5784 5804 5824 5844 5864 5884 5904 0
-9516 9537 0
-5504 9537 0
-5524 9537 0
-5565 9537 0
-5585 9537 0
-5605 9537 0
-5625 9537 0
-5645 9537 0
-5665 9537 0
-5685 9537 0
-5705 9537 0
-5725 9537 0
-5745 9537 0
-5765 9537 0
-5785 9537 0
-5805 9537 0
-5825 9537 0
-5845 9537 0
-5865 9537 0
-5885 9537 0
-5905 9537 0
-9537 9516 5504 5524 5565 5585 5605 5625 5645 5665 5685 5705 5725 5745 5765 5785 5805 5825 5845 5865 5885 5905 0
-9517 9538 0
-5505 9538 0
-5525 9538 0
-5545 9538 0
-5586 9538 0
-5606 9538 0
-5626 9538 0
-5646 9538 0
-5666 9538 0
-5686 9538 0
-5706 9538 0
-5726 9538 0
-5746 9538 0
-5766 9538 0
-5786 9538 0
-5806 9538 0
-5826 9538 0
-5846 9538 0
-5866 9538 0
-5886 9538 0
-5906 9538 0
-9538 9517 5505 5525 5545 5586 5606 5626 5646 5666 5686 5706 5726 5746 5766 5786 5806 5826 5846 5866 5886 5906 0
-9518 9539 0
-5506 9539 0
-5526 9539 0
-5546 9539 0
-5566 9539 0
-5607 9539 0
-5627 9539 0
-5647 9539 0
-5667 9539 0
-5687 9539 0
-5707 9539 0
-5727 9539 0
-5747 9539 0
-5767 9539 0
-5787 9539 0
-5807 9539 0
-5827 9539 0
-5847 9539 0
-5867 9539 0
-5887 9539 0
-5907 9539 0
-9539 9518 5506 5526 5546 5566 5607 5627 5647 5667 5687 5707 5727 5747 5767 5787 5807 5827 5847 5867 5887 5907 0
-9519 9540 0
-5507 9540 0
-5527 9540 0
-5547 9540 0
-5567 9540 0
-5587 9540 0
-5628 9540 0
-5648 9540 0
-5668 9540 0
-5688 9540 0
-5708 9540 0
-5728 9540 0
-5748 9540 0
-5768 9540 0
-5788 9540 0
-5808 9540 0
-5828 9540 0
-5848 9540 0
-5868 9540 0
-5888 9540 0
-5908 9540 0
-9540 9519 5507 5527 5547 5567 5587 5628 5648 5668 5688 5708 5728 5748 5768 5788 5808 5828 5848 5868 5888 5908 0
-9520 9541 0
-5508 9541 0
-5528 9541 0
-5548 9541 0
-5568 9541 0
-5588 9541 0
-5608 9541 0
-5649 9541 0
-5669 9541 0
-5689 9541 0
-5709 9541 0
-5729 9541 0
-5749 9541 0
-5769 9541 0
-5789 9541 0
-5809 9541 0
-5829 9541 0
-5849 9541 0
-5869 9541 0
-5889 9541 0
-5909 9541 0
-9541 9520 5508 5528 5548 5568 5588 5608 5649 5669 5689 5709 5729 5749 5769 5789 5809 5829 5849 5869 5889 5909 0
-9521 9542 0
-5509 9542 0
-5529 9542 0
-5549 9542 0
-5569 9542 0
-5589 9542 0
-5609 9542 0
-5629 9542 0
-5670 9542 0
-5690 9542 0
-5710 9542 0
-5730 9542 0
-5750 9542 0
-5770 9542 0
-5790 9542 0
-5810 9542 0
-5830 9542 0
-5850 9542 0
-5870 9542 0
-5890 9542 0
-5910 9542 0
-9542 9521 5509 5529 5549 5569 5589 5609 5629 5670 5690 5710 5730 5750 5770 5790 5810 5830 5850 5870 5890 5910 0
-9522 9543 0
-5510 9543 0
-5530 9543 0
-5550 9543 0
-5570 9543 0
-5590 9543 0
-5610 9543 0
-5630 9543 0
-5650 9543 0
-5691 9543 0
-5711 9543 0
-5731 9543 0
-5751 9543 0
-5771 9543 0
-5791 9543 0
-5811 9543 0
-5831 9543 0
-5851 9543 0
-5871 9543 0
-5891 9543 0
-5911 9543 0
-9543 9522 5510 5530 5550 5570 5590 5610 5630 5650 5691 5711 5731 5751 5771 5791 5811 5831 5851 5871 5891 5911 0
-9523 9544 0
-5511 9544 0
-5531 9544 0
-5551 9544 0
-5571 9544 0
-5591 9544 0
-5611 9544 0
-5631 9544 0
-5651 9544 0
-5671 9544 0
-5712 9544 0
-5732 9544 0
-5752 9544 0
-5772 9544 0
-5792 9544 0
-5812 9544 0
-5832 9544 0
-5852 9544 0
-5872 9544 0
-5892 9544 0
-5912 9544 0
-9544 9523 5511 5531 5551 5571 5591 5611 5631 5651 5671 5712 5732 5752 5772 5792 5812 5832 5852 5872 5892 5912 0
-9524 9545 0
-5512 9545 0
-5532 9545 0
-5552 9545 0
-5572 9545 0
-5592 9545 0
-5612 9545 0
-5632 9545 0
-5652 9545 0
-5672 9545 0
-5692 9545 0
-5733 9545 0
-5753 9545 0
-5773 9545 0
-5793 9545 0
-5813 9545 0
-5833 9545 0
-5853 9545 0
-5873 9545 0
-5893 9545 0
-5913 9545 0
-9545 9524 5512 5532 5552 5572 5592 5612 5632 5652 5672 5692 5733 5753 5773 5793 5813 5833 5853 5873 5893 5913 0
-9525 9546 0
-5513 9546 0
-5533 9546 0
-5553 9546 0
-5573 9546 0
-5593 9546 0
-5613 9546 0
-5633 9546 0
-5653 9546 0
-5673 9546 0
-5693 9546 0
-5713 9546 0
-5754 9546 0
-5774 9546 0
-5794 9546 0
-5814 9546 0
-5834 9546 0
-5854 9546 0
-5874 9546 0
-5894 9546 0
-5914 9546 0
-9546 9525 5513 5533 5553 5573 5593 5613 5633 5653 5673 5693 5713 5754 5774 5794 5814 5834 5854 5874 5894 5914 0
-9526 9547 0
-5514 9547 0
-5534 9547 0
-5554 9547 0
-5574 9547 0
-5594 9547 0
-5614 9547 0
-5634 9547 0
-5654 9547 0
-5674 9547 0
-5694 9547 0
-5714 9547 0
-5734 9547 0
-5775 9547 0
-5795 9547 0
-5815 9547 0
-5835 9547 0
-5855 9547 0
-5875 9547 0
-5895 9547 0
-5915 9547 0
-9547 9526 5514 5534 5554 5574 5594 5614 5634 5654 5674 5694 5714 5734 5775 5795 5815 5835 5855 5875 5895 5915 0
-9527 9548 0
-5515 9548 0
-5535 9548 0
-5555 9548 0
-5575 9548 0
-5595 9548 0
-5615 9548 0
-5635 9548 0
-5655 9548 0
-5675 9548 0
-5695 9548 0
-5715 9548 0
-5735 9548 0
-5755 9548 0
-5796 9548 0
-5816 9548 0
-5836 9548 0
-5856 9548 0
-5876 9548 0
-5896 9548 0
-5916 9548 0
-9548 9527 5515 5535 5555 5575 5595 5615 5635 5655 5675 5695 5715 5735 5755 5796 5816 5836 5856 5876 5896 5916 0
-9528 9549 0
-5516 9549 0
-5536 9549 0
-5556 9549 0
-5576 9549 0
-5596 9549 0
-5616 9549 0
-5636 9549 0
-5656 9549 0
-5676 9549 0
-5696 9549 0
-5716 9549 0
-5736 9549 0
-5756 9549 0
-5776 9549 0
-5817 9549 0
-5837 9549 0
-5857 9549 0
-5877 9549 0
-5897 9549 0
-5917 9549 0
-9549 9528 5516 5536 5556 5576 5596 5616 5636 5656 5676 5696 5716 5736 5756 5776 5817 5837 5857 5877 5897 5917 0
-9529 9550 0
-5517 9550 0
-5537 9550 0
-5557 9550 0
-5577 9550 0
-5597 9550 0
-5617 9550 0
-5637 9550 0
-5657 9550 0
-5677 9550 0
-5697 9550 0
-5717 9550 0
-5737 9550 0
-5757 9550 0
-5777 9550 0
-5797 9550 0
-5838 9550 0
-5858 9550 0
-5878 9550 0
-5898 9550 0
-5918 9550 0
-9550 9529 5517 5537 5557 5577 5597 5617 5637 5657 5677 5697 5717 5737 5757 5777 5797 5838 5858 5878 5898 5918 0
-9530 9551 0
-5518 9551 0
-5538 9551 0
-5558 9551 0
-5578 9551 0
-5598 9551 0
-5618 9551 0
-5638 9551 0
-5658 9551 0
-5678 9551 0
-5698 9551 0
-5718 9551 0
-5738 9551 0
-5758 9551 0
-5778 9551 0
-5798 9551 0
-5818 9551 0
-5859 9551 0
-5879 9551 0
-5899 9551 0
-5919 9551 0
-9551 9530 5518 5538 5558 5578 5598 5618 5638 5658 5678 5698 5718 5738 5758 5778 5798 5818 5859 5879 5899 5919 0
-9531 9552 0
-5519 9552 0
-5539 9552 0
-5559 9552 0
-5579 9552 0
-5599 9552 0
-5619 9552 0
-5639 9552 0
-5659 9552 0
-5679 9552 0
-5699 9552 0
-5719 9552 0
-5739 9552 0
-5759 9552 0
-5779 9552 0
-5799 9552 0
-5819 9552 0
-5839 9552 0
-5880 9552 0
-5900 9552 0
-5920 9552 0
-9552 9531 5519 5539 5559 5579 5599 5619 5639 5659 5679 5699 5719 5739 5759 5779 5799 5819 5839 5880 5900 5920 0
-9532 9553 0
-5520 9553 0
-5540 9553 0
-5560 9553 0
-5580 9553 0
-5600 9553 0
-5620 9553 0
-5640 9553 0
-5660 9553 0
-5680 9553 0
-5700 9553 0
-5720 9553 0
-5740 9553 0
-5760 9553 0
-5780 9553 0
-5800 9553 0
-5820 9553 0
-5840 9553 0
-5860 9553 0
-5901 9553 0
-5921 9553 0
-9553 9532 5520 5540 5560 5580 5600 5620 5640 5660 5680 5700 5720 5740 5760 5780 5800 5820 5840 5860 5901 5921 0
-9533 9554 0
-5521 9554 0
-5541 9554 0
-5561 9554 0
-5581 9554 0
-5601 9554 0
-5621 9554 0
-5641 9554 0
-5661 9554 0
-5681 9554 0
-5701 9554 0
-5721 9554 0
-5741 9554 0
-5761 9554 0
-5781 9554 0
-5801 9554 0
-5821 9554 0
-5841 9554 0
-5861 9554 0
-5881 9554 0
-5922 9554 0
-9554 9533 5521 5541 5561 5581 5601 5621 5641 5661 5681 5701 5721 5741 5761 5781 5801 5821 5841 5861 5881 5922 0
-9534 9555 0
-5522 9555 0
-5542 9555 0
-5562 9555 0
-5582 9555 0
-5602 9555 0
-5622 9555 0
-5642 9555 0
-5662 9555 0
-5682 9555 0
-5702 9555 0
-5722 9555 0
-5742 9555 0
-5762 9555 0
-5782 9555 0
-5802 9555 0
-5822 9555 0
-5842 9555 0
-5862 9555 0
-5882 9555 0
-5902 9555 0
-9555 9534 5522 5542 5562 5582 5602 5622 5642 5662 5682 5702 5722 5742 5762 5782 5802 5822 5842 5862 5882 5902 0
-9535 9556 0
-5943 9556 0
-5963 9556 0
-5983 9556 0
-6003 9556 0
-6023 9556 0
-6043 9556 0
-6063 9556 0
-6083 9556 0
-6103 9556 0
-6123 9556 0
-6143 9556 0
-6163 9556 0
-6183 9556 0
-6203 9556 0
-6223 9556 0
-6243 9556 0
-6263 9556 0
-6283 9556 0
-6303 9556 0
-6323 9556 0
-9556 9535 5943 5963 5983 6003 6023 6043 6063 6083 6103 6123 6143 6163 6183 6203 6223 6243 6263 6283 6303 6323 0
-9536 9557 0
-5923 9557 0
-5964 9557 0
-5984 9557 0
-6004 9557 0
-6024 9557 0
-6044 9557 0
-6064 9557 0
-6084 9557 0
-6104 9557 0
-6124 9557 0
-6144 9557 0
-6164 9557 0
-6184 9557 0
-6204 9557 0
-6224 9557 0
-6244 9557 0
-6264 9557 0
-6284 9557 0
-6304 9557 0
-6324 9557 0
-9557 9536 5923 5964 5984 6004 6024 6044 6064 6084 6104 6124 6144 6164 6184 6204 6224 6244 6264 6284 6304 6324 0
-9537 9558 0
-5924 9558 0
-5944 9558 0
-5985 9558 0
-6005 9558 0
-6025 9558 0
-6045 9558 0
-6065 9558 0
-6085 9558 0
-6105 9558 0
-6125 9558 0
-6145 9558 0
-6165 9558 0
-6185 9558 0
-6205 9558 0
-6225 9558 0
-6245 9558 0
-6265 9558 0
-6285 9558 0
-6305 9558 0
-6325 9558 0
-9558 9537 5924 5944 5985 6005 6025 6045 6065 6085 6105 6125 6145 6165 6185 6205 6225 6245 6265 6285 6305 6325 0
-9538 9559 0
-5925 9559 0
-5945 9559 0
-5965 9559 0
-6006 9559 0
-6026 9559 0
-6046 9559 0
-6066 9559 0
-6086 9559 0
-6106 9559 0
-6126 9559 0
-6146 9559 0
-6166 9559 0
-6186 9559 0
-6206 9559 0
-6226 9559 0
-6246 9559 0
-6266 9559 0
-6286 9559 0
-6306 9559 0
-6326 9559 0
-9559 9538 5925 5945 5965 6006 6026 6046 6066 6086 6106 6126 6146 6166 6186 6206 6226 6246 6266 6286 6306 6326 0
-9539 9560 0
-5926 9560 0
-5946 9560 0
-5966 9560 0
-5986 9560 0
-6027 9560 0
-6047 9560 0
-6067 9560 0
-6087 9560 0
-6107 9560 0
-6127 9560 0
-6147 9560 0
-6167 9560 0
-6187 9560 0
-6207 9560 0
-6227 9560 0
-6247 9560 0
-6267 9560 0
-6287 9560 0
-6307 9560 0
-6327 9560 0
-9560 9539 5926 5946 5966 5986 6027 6047 6067 6087 6107 6127 6147 6167 6187 6207 6227 6247 6267 6287 6307 6327 0
-9540 9561 0
-5927 9561 0
-5947 9561 0
-5967 9561 0
-5987 9561 0
-6007 9561 0
-6048 9561 0
-6068 9561 0
-6088 9561 0
-6108 9561 0
-6128 9561 0
-6148 9561 0
-6168 9561 0
-6188 9561 0
-6208 9561 0
-6228 9561 0
-6248 9561 0
-6268 9561 0
-6288 9561 0
-6308 9561 0
-6328 9561 0
-9561 9540 5927 5947 5967 5987 6007 6048 6068 6088 6108 6128 6148 6168 6188 6208 6228 6248 6268 6288 6308 6328 0
-9541 9562 0
-5928 9562 0
-5948 9562 0
-5968 9562 0
-5988 9562 0
-6008 9562 0
-6028 9562 0
-6069 9562 0
-6089 9562 0
-6109 9562 0
-6129 9562 0
-6149 9562 0
-6169 9562 0
-6189 9562 0
-6209 9562 0
-6229 9562 0
-6249 9562 0
-6269 9562 0
-6289 9562 0
-6309 9562 0
-6329 9562 0
-9562 9541 5928 5948 5968 5988 6008 6028 6069 6089 6109 6129 6149 6169 6189 6209 6229 6249 6269 6289 6309 6329 0
-9542 9563 0
-5929 9563 0
-5949 9563 0
-5969 9563 0
-5989 9563 0
-6009 9563 0
-6029 9563 0
-6049 9563 0
-6090 9563 0
-6110 9563 0
-6130 9563 0
-6150 9563 0
-6170 9563 0
-6190 9563 0
-6210 9563 0
-6230 9563 0
-6250 9563 0
-6270 9563 0
-6290 9563 0
-6310 9563 0
-6330 9563 0
-9563 9542 5929 5949 5969 5989 6009 6029 6049 6090 6110 6130 6150 6170 6190 6210 6230 6250 6270 6290 6310 6330 0
-9543 9564 0
-5930 9564 0
-5950 9564 0
-5970 9564 0
-5990 9564 0
-6010 9564 0
-6030 9564 0
-6050 9564 0
-6070 9564 0
-6111 9564 0
-6131 9564 0
-6151 9564 0
-6171 9564 0
-6191 9564 0
-6211 9564 0
-6231 9564 0
-6251 9564 0
-6271 9564 0
-6291 9564 0
-6311 9564 0
-6331 9564 0
-9564 9543 5930 5950 5970 5990 6010 6030 6050 6070 6111 6131 6151 6171 6191 6211 6231 6251 6271 6291 6311 6331 0
-9544 9565 0
-5931 9565 0
-5951 9565 0
-5971 9565 0
-5991 9565 0
-6011 9565 0
-6031 9565 0
-6051 9565 0
-6071 9565 0
-6091 9565 0
-6132 9565 0
-6152 9565 0
-6172 9565 0
-6192 9565 0
-6212 9565 0
-6232 9565 0
-6252 9565 0
-6272 9565 0
-6292 9565 0
-6312 9565 0
-6332 9565 0
-9565 9544 5931 5951 5971 5991 6011 6031 6051 6071 6091 6132 6152 6172 6192 6212 6232 6252 6272 6292 6312 6332 0
-9545 9566 0
-5932 9566 0
-5952 9566 0
-5972 9566 0
-5992 9566 0
-6012 9566 0
-6032 9566 0
-6052 9566 0
-6072 9566 0
-6092 9566 0
-6112 9566 0
-6153 9566 0
-6173 9566 0
-6193 9566 0
-6213 9566 0
-6233 9566 0
-6253 9566 0
-6273 9566 0
-6293 9566 0
-6313 9566 0
-6333 9566 0
-9566 9545 5932 5952 5972 5992 6012 6032 6052 6072 6092 6112 6153 6173 6193 6213 6233 6253 6273 6293 6313 6333 0
-9546 9567 0
-5933 9567 0
-5953 9567 0
-5973 9567 0
-5993 9567 0
-6013 9567 0
-6033 9567 0
-6053 9567 0
-6073 9567 0
-6093 9567 0
-6113 9567 0
-6133 9567 0
-6174 9567 0
-6194 9567 0
-6214 9567 0
-6234 9567 0
-6254 9567 0
-6274 9567 0
-6294 9567 0
-6314 9567 0
-6334 9567 0
-9567 9546 5933 5953 5973 5993 6013 6033 6053 6073 6093 6113 6133 6174 6194 6214 6234 6254 6274 6294 6314 6334 0
-9547 9568 0
-5934 9568 0
-5954 9568 0
-5974 9568 0
-5994 9568 0
-6014 9568 0
-6034 9568 0
-6054 9568 0
-6074 9568 0
-6094 9568 0
-6114 9568 0
-6134 9568 0
-6154 9568 0
-6195 9568 0
-6215 9568 0
-6235 9568 0
-6255 9568 0
-6275 9568 0
-6295 9568 0
-6315 9568 0
-6335 9568 0
-9568 9547 5934 5954 5974 5994 6014 6034 6054 6074 6094 6114 6134 6154 6195 6215 6235 6255 6275 6295 6315 6335 0
-9548 9569 0
-5935 9569 0
-5955 9569 0
-5975 9569 0
-5995 9569 0
-6015 9569 0
-6035 9569 0
-6055 9569 0
-6075 9569 0
-6095 9569 0
-6115 9569 0
-6135 9569 0
-6155 9569 0
-6175 9569 0
-6216 9569 0
-6236 9569 0
-6256 9569 0
-6276 9569 0
-6296 9569 0
-6316 9569 0
-6336 9569 0
-9569 9548 5935 5955 5975 5995 6015 6035 6055 6075 6095 6115 6135 6155 6175 6216 6236 6256 6276 6296 6316 6336 0
-9549 9570 0
-5936 9570 0
-5956 9570 0
-5976 9570 0
-5996 9570 0
-6016 9570 0
-6036 9570 0
-6056 9570 0
-6076 9570 0
-6096 9570 0
-6116 9570 0
-6136 9570 0
-6156 9570 0
-6176 9570 0
-6196 9570 0
-6237 9570 0
-6257 9570 0
-6277 9570 0
-6297 9570 0
-6317 9570 0
-6337 9570 0
-9570 9549 5936 5956 5976 5996 6016 6036 6056 6076 6096 6116 6136 6156 6176 6196 6237 6257 6277 6297 6317 6337 0
-9550 9571 0
-5937 9571 0
-5957 9571 0
-5977 9571 0
-5997 9571 0
-6017 9571 0
-6037 9571 0
-6057 9571 0
-6077 9571 0
-6097 9571 0
-6117 9571 0
-6137 9571 0
-6157 9571 0
-6177 9571 0
-6197 9571 0
-6217 9571 0
-6258 9571 0
-6278 9571 0
-6298 9571 0
-6318 9571 0
-6338 9571 0
-9571 9550 5937 5957 5977 5997 6017 6037 6057 6077 6097 6117 6137 6157 6177 6197 6217 6258 6278 6298 6318 6338 0
-9551 9572 0
-5938 9572 0
-5958 9572 0
-5978 9572 0
-5998 9572 0
-6018 9572 0
-6038 9572 0
-6058 9572 0
-6078 9572 0
-6098 9572 0
-6118 9572 0
-6138 9572 0
-6158 9572 0
-6178 9572 0
-6198 9572 0
-6218 9572 0
-6238 9572 0
-6279 9572 0
-6299 9572 0
-6319 9572 0
-6339 9572 0
-9572 9551 5938 5958 5978 5998 6018 6038 6058 6078 6098 6118 6138 6158 6178 6198 6218 6238 6279 6299 6319 6339 0
-9552 9573 0
-5939 9573 0
-5959 9573 0
-5979 9573 0
-5999 9573 0
-6019 9573 0
-6039 9573 0
-6059 9573 0
-6079 9573 0
-6099 9573 0
-6119 9573 0
-6139 9573 0
-6159 9573 0
-6179 9573 0
-6199 9573 0
-6219 9573 0
-6239 9573 0
-6259 9573 0
-6300 9573 0
-6320 9573 0
-6340 9573 0
-9573 9552 5939 5959 5979 5999 6019 6039 6059 6079 6099 6119 6139 6159 6179 6199 6219 6239 6259 6300 6320 6340 0
-9553 9574 0
-5940 9574 0
-5960 9574 0
-5980 9574 0
-6000 9574 0
-6020 9574 0
-6040 9574 0
-6060 9574 0
-6080 9574 0
-6100 9574 0
-6120 9574 0
-6140 9574 0
-6160 9574 0
-6180 9574 0
-6200 9574 0
-6220 9574 0
-6240 9574 0
-6260 9574 0
-6280 9574 0
-6321 9574 0
-6341 9574 0
-9574 9553 5940 5960 5980 6000 6020 6040 6060 6080 6100 6120 6140 6160 6180 6200 6220 6240 6260 6280 6321 6341 0
-9554 9575 0
-5941 9575 0
-5961 9575 0
-5981 9575 0
-6001 9575 0
-6021 9575 0
-6041 9575 0
-6061 9575 0
-6081 9575 0
-6101 9575 0
-6121 9575 0
-6141 9575 0
-6161 9575 0
-6181 9575 0
-6201 9575 0
-6221 9575 0
-6241 9575 0
-6261 9575 0
-6281 9575 0
-6301 9575 0
-6342 9575 0
-9575 9554 5941 5961 5981 6001 6021 6041 6061 6081 6101 6121 6141 6161 6181 6201 6221 6241 6261 6281 6301 6342 0
-9555 9576 0
-5942 9576 0
-5962 9576 0
-5982 9576 0
-6002 9576 0
-6022 9576 0
-6042 9576 0
-6062 9576 0
-6082 9576 0
-6102 9576 0
-6122 9576 0
-6142 9576 0
-6162 9576 0
-6182 9576 0
-6202 9576 0
-6222 9576 0
-6242 9576 0
-6262 9576 0
-6282 9576 0
-6302 9576 0
-6322 9576 0
-9576 9555 5942 5962 5982 6002 6022 6042 6062 6082 6102 6122 6142 6162 6182 6202 6222 6242 6262 6282 6302 6322 0
-9556 9577 0
-6363 9577 0
-6383 9577 0
-6403 9577 0
-6423 9577 0
-6443 9577 0
-6463 9577 0
-6483 9577 0
-6503 9577 0
-6523 9577 0
-6543 9577 0
-6563 9577 0
-6583 9577 0
-6603 9577 0
-6623 9577 0
-6643 9577 0
-6663 9577 0
-6683 9577 0
-6703 9577 0
-6723 9577 0
-6743 9577 0
-9577 9556 6363 6383 6403 6423 6443 6463 6483 6503 6523 6543 6563 6583 6603 6623 6643 6663 6683 6703 6723 6743 0
-9557 9578 0
-6343 9578 0
-6384 9578 0
-6404 9578 0
-6424 9578 0
-6444 9578 0
-6464 9578 0
-6484 9578 0
-6504 9578 0
-6524 9578 0
-6544 9578 0
-6564 9578 0
-6584 9578 0
-6604 9578 0
-6624 9578 0
-6644 9578 0
-6664 9578 0
-6684 9578 0
-6704 9578 0
-6724 9578 0
-6744 9578 0
-9578 9557 6343 6384 6404 6424 6444 6464 6484 6504 6524 6544 6564 6584 6604 6624 6644 6664 6684 6704 6724 6744 0
-9558 9579 0
-6344 9579 0
-6364 9579 0
-6405 9579 0
-6425 9579 0
-6445 9579 0
-6465 9579 0
-6485 9579 0
-6505 9579 0
-6525 9579 0
-6545 9579 0
-6565 9579 0
-6585 9579 0
-6605 9579 0
-6625 9579 0
-6645 9579 0
-6665 9579 0
-6685 9579 0
-6705 9579 0
-6725 9579 0
-6745 9579 0
-9579 9558 6344 6364 6405 6425 6445 6465 6485 6505 6525 6545 6565 6585 6605 6625 6645 6665 6685 6705 6725 6745 0
-9559 9580 0
-6345 9580 0
-6365 9580 0
-6385 9580 0
-6426 9580 0
-6446 9580 0
-6466 9580 0
-6486 9580 0
-6506 9580 0
-6526 9580 0
-6546 9580 0
-6566 9580 0
-6586 9580 0
-6606 9580 0
-6626 9580 0
-6646 9580 0
-6666 9580 0
-6686 9580 0
-6706 9580 0
-6726 9580 0
-6746 9580 0
-9580 9559 6345 6365 6385 6426 6446 6466 6486 6506 6526 6546 6566 6586 6606 6626 6646 6666 6686 6706 6726 6746 0
-9560 9581 0
-6346 9581 0
-6366 9581 0
-6386 9581 0
-6406 9581 0
-6447 9581 0
-6467 9581 0
-6487 9581 0
-6507 9581 0
-6527 9581 0
-6547 9581 0
-6567 9581 0
-6587 9581 0
-6607 9581 0
-6627 9581 0
-6647 9581 0
-6667 9581 0
-6687 9581 0
-6707 9581 0
-6727 9581 0
-6747 9581 0
-9581 9560 6346 6366 6386 6406 6447 6467 6487 6507 6527 6547 6567 6587 6607 6627 6647 6667 6687 6707 6727 6747 0
-9561 9582 0
-6347 9582 0
-6367 9582 0
-6387 9582 0
-6407 9582 0
-6427 9582 0
-6468 9582 0
-6488 9582 0
-6508 9582 0
-6528 9582 0
-6548 9582 0
-6568 9582 0
-6588 9582 0
-6608 9582 0
-6628 9582 0
-6648 9582 0
-6668 9582 0
-6688 9582 0
-6708 9582 0
-6728 9582 0
-6748 9582 0
-9582 9561 6347 6367 6387 6407 6427 6468 6488 6508 6528 6548 6568 6588 6608 6628 6648 6668 6688 6708 6728 6748 0
-9562 9583 0
-6348 9583 0
-6368 9583 0
-6388 9583 0
-6408 9583 0
-6428 9583 0
-6448 9583 0
-6489 9583 0
-6509 9583 0
-6529 9583 0
-6549 9583 0
-6569 9583 0
-6589 9583 0
-6609 9583 0
-6629 9583 0
-6649 9583 0
-6669 9583 0
-6689 9583 0
-6709 9583 0
-6729 9583 0
-6749 9583 0
-9583 9562 6348 6368 6388 6408 6428 6448 6489 6509 6529 6549 6569 6589 6609 6629 6649 6669 6689 6709 6729 6749 0
-9563 9584 0
-6349 9584 0
-6369 9584 0
-6389 9584 0
-6409 9584 0
-6429 9584 0
-6449 9584 0
-6469 9584 0
-6510 9584 0
-6530 9584 0
-6550 9584 0
-6570 9584 0
-6590 9584 0
-6610 9584 0
-6630 9584 0
-6650 9584 0
-6670 9584 0
-6690 9584 0
-6710 9584 0
-6730 9584 0
-6750 9584 0
-9584 9563 6349 6369 6389 6409 6429 6449 6469 6510 6530 6550 6570 6590 6610 6630 6650 6670 6690 6710 6730 6750 0
-9564 9585 0
-6350 9585 0
-6370 9585 0
-6390 9585 0
-6410 9585 0
-6430 9585 0
-6450 9585 0
-6470 9585 0
-6490 9585 0
-6531 9585 0
-6551 9585 0
-6571 9585 0
-6591 9585 0
-6611 9585 0
-6631 9585 0
-6651 9585 0
-6671 9585 0
-6691 9585 0
-6711 9585 0
-6731 9585 0
-6751 9585 0
-9585 9564 6350 6370 6390 6410 6430 6450 6470 6490 6531 6551 6571 6591 6611 6631 6651 6671 6691 6711 6731 6751 0
-9565 9586 0
-6351 9586 0
-6371 9586 0
-6391 9586 0
-6411 9586 0
-6431 9586 0
-6451 9586 0
-6471 9586 0
-6491 9586 0
-6511 9586 0
-6552 9586 0
-6572 9586 0
-6592 9586 0
-6612 9586 0
-6632 9586 0
-6652 9586 0
-6672 9586 0
-6692 9586 0
-6712 9586 0
-6732 9586 0
-6752 9586 0
-9586 9565 6351 6371 6391 6411 6431 6451 6471 6491 6511 6552 6572 6592 6612 6632 6652 6672 6692 6712 6732 6752 0
-9566 9587 0
-6352 9587 0
-6372 9587 0
-6392 9587 0
-6412 9587 0
-6432 9587 0
-6452 9587 0
-6472 9587 0
-6492 9587 0
-6512 9587 0
-6532 9587 0
-6573 9587 0
-6593 9587 0
-6613 9587 0
-6633 9587 0
-6653 9587 0
-6673 9587 0
-6693 9587 0
-6713 9587 0
-6733 9587 0
-6753 9587 0
-9587 9566 6352 6372 6392 6412 6432 6452 6472 6492 6512 6532 6573 6593 6613 6633 6653 6673 6693 6713 6733 6753 0
-9567 9588 0
-6353 9588 0
-6373 9588 0
-6393 9588 0
-6413 9588 0
-6433 9588 0
-6453 9588 0
-6473 9588 0
-6493 9588 0
-6513 9588 0
-6533 9588 0
-6553 9588 0
-6594 9588 0
-6614 9588 0
-6634 9588 0
-6654 9588 0
-6674 9588 0
-6694 9588 0
-6714 9588 0
-6734 9588 0
-6754 9588 0
-9588 9567 6353 6373 6393 6413 6433 6453 6473 6493 6513 6533 6553 6594 6614 6634 6654 6674 6694 6714 6734 6754 0
-9568 9589 0
-6354 9589 0
-6374 9589 0
-6394 9589 0
-6414 9589 0
-6434 9589 0
-6454 9589 0
-6474 9589 0
-6494 9589 0
-6514 9589 0
-6534 9589 0
-6554 9589 0
-6574 9589 0
-6615 9589 0
-6635 9589 0
-6655 9589 0
-6675 9589 0
-6695 9589 0
-6715 9589 0
-6735 9589 0
-6755 9589 0
-9589 9568 6354 6374 6394 6414 6434 6454 6474 6494 6514 6534 6554 6574 6615 6635 6655 6675 6695 6715 6735 6755 0
-9569 9590 0
-6355 9590 0
-6375 9590 0
-6395 9590 0
-6415 9590 0
-6435 9590 0
-6455 9590 0
-6475 9590 0
-6495 9590 0
-6515 9590 0
-6535 9590 0
-6555 9590 0
-6575 9590 0
-6595 9590 0
-6636 9590 0
-6656 9590 0
-6676 9590 0
-6696 9590 0
-6716 9590 0
-6736 9590 0
-6756 9590 0
-9590 9569 6355 6375 6395 6415 6435 6455 6475 6495 6515 6535 6555 6575 6595 6636 6656 6676 6696 6716 6736 6756 0
-9570 9591 0
-6356 9591 0
-6376 9591 0
-6396 9591 0
-6416 9591 0
-6436 9591 0
-6456 9591 0
-6476 9591 0
-6496 9591 0
-6516 9591 0
-6536 9591 0
-6556 9591 0
-6576 9591 0
-6596 9591 0
-6616 9591 0
-6657 9591 0
-6677 9591 0
-6697 9591 0
-6717 9591 0
-6737 9591 0
-6757 9591 0
-9591 9570 6356 6376 6396 6416 6436 6456 6476 6496 6516 6536 6556 6576 6596 6616 6657 6677 6697 6717 6737 6757 0
-9571 9592 0
-6357 9592 0
-6377 9592 0
-6397 9592 0
-6417 9592 0
-6437 9592 0
-6457 9592 0
-6477 9592 0
-6497 9592 0
-6517 9592 0
-6537 9592 0
-6557 9592 0
-6577 9592 0
-6597 9592 0
-6617 9592 0
-6637 9592 0
-6678 9592 0
-6698 9592 0
-6718 9592 0
-6738 9592 0
-6758 9592 0
-9592 9571 6357 6377 6397 6417 6437 6457 6477 6497 6517 6537 6557 6577 6597 6617 6637 6678 6698 6718 6738 6758 0
-9572 9593 0
-6358 9593 0
-6378 9593 0
-6398 9593 0
-6418 9593 0
-6438 9593 0
-6458 9593 0
-6478 9593 0
-6498 9593 0
-6518 9593 0
-6538 9593 0
-6558 9593 0
-6578 9593 0
-6598 9593 0
-6618 9593 0
-6638 9593 0
-6658 9593 0
-6699 9593 0
-6719 9593 0
-6739 9593 0
-6759 9593 0
-9593 9572 6358 6378 6398 6418 6438 6458 6478 6498 6518 6538 6558 6578 6598 6618 6638 6658 6699 6719 6739 6759 0
-9573 9594 0
-6359 9594 0
-6379 9594 0
-6399 9594 0
-6419 9594 0
-6439 9594 0
-6459 9594 0
-6479 9594 0
-6499 9594 0
-6519 9594 0
-6539 9594 0
-6559 9594 0
-6579 9594 0
-6599 9594 0
-6619 9594 0
-6639 9594 0
-6659 9594 0
-6679 9594 0
-6720 9594 0
-6740 9594 0
-6760 9594 0
-9594 9573 6359 6379 6399 6419 6439 6459 6479 6499 6519 6539 6559 6579 6599 6619 6639 6659 6679 6720 6740 6760 0
-9574 9595 0
-6360 9595 0
-6380 9595 0
-6400 9595 0
-6420 9595 0
-6440 9595 0
-6460 9595 0
-6480 9595 0
-6500 9595 0
-6520 9595 0
-6540 9595 0
-6560 9595 0
-6580 9595 0
-6600 9595 0
-6620 9595 0
-6640 9595 0
-6660 9595 0
-6680 9595 0
-6700 9595 0
-6741 9595 0
-6761 9595 0
-9595 9574 6360 6380 6400 6420 6440 6460 6480 6500 6520 6540 6560 6580 6600 6620 6640 6660 6680 6700 6741 6761 0
-9575 9596 0
-6361 9596 0
-6381 9596 0
-6401 9596 0
-6421 9596 0
-6441 9596 0
-6461 9596 0
-6481 9596 0
-6501 9596 0
-6521 9596 0
-6541 9596 0
-6561 9596 0
-6581 9596 0
-6601 9596 0
-6621 9596 0
-6641 9596 0
-6661 9596 0
-6681 9596 0
-6701 9596 0
-6721 9596 0
-6762 9596 0
-9596 9575 6361 6381 6401 6421 6441 6461 6481 6501 6521 6541 6561 6581 6601 6621 6641 6661 6681 6701 6721 6762 0
-9576 9597 0
-6362 9597 0
-6382 9597 0
-6402 9597 0
-6422 9597 0
-6442 9597 0
-6462 9597 0
-6482 9597 0
-6502 9597 0
-6522 9597 0
-6542 9597 0
-6562 9597 0
-6582 9597 0
-6602 9597 0
-6622 9597 0
-6642 9597 0
-6662 9597 0
-6682 9597 0
-6702 9597 0
-6722 9597 0
-6742 9597 0
-9597 9576 6362 6382 6402 6422 6442 6462 6482 6502 6522 6542 6562 6582 6602 6622 6642 6662 6682 6702 6722 6742 0
-9577 9598 0
-6783 9598 0
-6803 9598 0
-6823 9598 0
-6843 9598 0
-6863 9598 0
-6883 9598 0
-6903 9598 0
-6923 9598 0
-6943 9598 0
-6963 9598 0
-6983 9598 0
-7003 9598 0
-7023 9598 0
-7043 9598 0
-7063 9598 0
-7083 9598 0
-7103 9598 0
-7123 9598 0
-7143 9598 0
-7163 9598 0
-9598 9577 6783 6803 6823 6843 6863 6883 6903 6923 6943 6963 6983 7003 7023 7043 7063 7083 7103 7123 7143 7163 0
-9578 9599 0
-6763 9599 0
-6804 9599 0
-6824 9599 0
-6844 9599 0
-6864 9599 0
-6884 9599 0
-6904 9599 0
-6924 9599 0
-6944 9599 0
-6964 9599 0
-6984 9599 0
-7004 9599 0
-7024 9599 0
-7044 9599 0
-7064 9599 0
-7084 9599 0
-7104 9599 0
-7124 9599 0
-7144 9599 0
-7164 9599 0
-9599 9578 6763 6804 6824 6844 6864 6884 6904 6924 6944 6964 6984 7004 7024 7044 7064 7084 7104 7124 7144 7164 0
-9579 9600 0
-6764 9600 0
-6784 9600 0
-6825 9600 0
-6845 9600 0
-6865 9600 0
-6885 9600 0
-6905 9600 0
-6925 9600 0
-6945 9600 0
-6965 9600 0
-6985 9600 0
-7005 9600 0
-7025 9600 0
-7045 9600 0
-7065 9600 0
-7085 9600 0
-7105 9600 0
-7125 9600 0
-7145 9600 0
-7165 9600 0
-9600 9579 6764 6784 6825 6845 6865 6885 6905 6925 6945 6965 6985 7005 7025 7045 7065 7085 7105 7125 7145 7165 0
-9580 9601 0
-6765 9601 0
-6785 9601 0
-6805 9601 0
-6846 9601 0
-6866 9601 0
-6886 9601 0
-6906 9601 0
-6926 9601 0
-6946 9601 0
-6966 9601 0
-6986 9601 0
-7006 9601 0
-7026 9601 0
-7046 9601 0
-7066 9601 0
-7086 9601 0
-7106 9601 0
-7126 9601 0
-7146 9601 0
-7166 9601 0
-9601 9580 6765 6785 6805 6846 6866 6886 6906 6926 6946 6966 6986 7006 7026 7046 7066 7086 7106 7126 7146 7166 0
-9581 9602 0
-6766 9602 0
-6786 9602 0
-6806 9602 0
-6826 9602 0
-6867 9602 0
-6887 9602 0
-6907 9602 0
-6927 9602 0
-6947 9602 0
-6967 9602 0
-6987 9602 0
-7007 9602 0
-7027 9602 0
-7047 9602 0
-7067 9602 0
-7087 9602 0
-7107 9602 0
-7127 9602 0
-7147 9602 0
-7167 9602 0
-9602 9581 6766 6786 6806 6826 6867 6887 6907 6927 6947 6967 6987 7007 7027 7047 7067 7087 7107 7127 7147 7167 0
-9582 9603 0
-6767 9603 0
-6787 9603 0
-6807 9603 0
-6827 9603 0
-6847 9603 0
-6888 9603 0
-6908 9603 0
-6928 9603 0
-6948 9603 0
-6968 9603 0
-6988 9603 0
-7008 9603 0
-7028 9603 0
-7048 9603 0
-7068 9603 0
-7088 9603 0
-7108 9603 0
-7128 9603 0
-7148 9603 0
-7168 9603 0
-9603 9582 6767 6787 6807 6827 6847 6888 6908 6928 6948 6968 6988 7008 7028 7048 7068 7088 7108 7128 7148 7168 0
-9583 9604 0
-6768 9604 0
-6788 9604 0
-6808 9604 0
-6828 9604 0
-6848 9604 0
-6868 9604 0
-6909 9604 0
-6929 9604 0
-6949 9604 0
-6969 9604 0
-6989 9604 0
-7009 9604 0
-7029 9604 0
-7049 9604 0
-7069 9604 0
-7089 9604 0
-7109 9604 0
-7129 9604 0
-7149 9604 0
-7169 9604 0
-9604 9583 6768 6788 6808 6828 6848 6868 6909 6929 6949 6969 6989 7009 7029 7049 7069 7089 7109 7129 7149 7169 0
-9584 9605 0
-6769 9605 0
-6789 9605 0
-6809 9605 0
-6829 9605 0
-6849 9605 0
-6869 9605 0
-6889 9605 0
-6930 9605 0
-6950 9605 0
-6970 9605 0
-6990 9605 0
-7010 9605 0
-7030 9605 0
-7050 9605 0
-7070 9605 0
-7090 9605 0
-7110 9605 0
-7130 9605 0
-7150 9605 0
-7170 9605 0
-9605 9584 6769 6789 6809 6829 6849 6869 6889 6930 6950 6970 6990 7010 7030 7050 7070 7090 7110 7130 7150 7170 0
-9585 9606 0
-6770 9606 0
-6790 9606 0
-6810 9606 0
-6830 9606 0
-6850 9606 0
-6870 9606 0
-6890 9606 0
-6910 9606 0
-6951 9606 0
-6971 9606 0
-6991 9606 0
-7011 9606 0
-7031 9606 0
-7051 9606 0
-7071 9606 0
-7091 9606 0
-7111 9606 0
-7131 9606 0
-7151 9606 0
-7171 9606 0
-9606 9585 6770 6790 6810 6830 6850 6870 6890 6910 6951 6971 6991 7011 7031 7051 7071 7091 7111 7131 7151 7171 0
-9586 9607 0
-6771 9607 0
-6791 9607 0
-6811 9607 0
-6831 9607 0
-6851 9607 0
-6871 9607 0
-6891 9607 0
-6911 9607 0
-6931 9607 0
-6972 9607 0
-6992 9607 0
-7012 9607 0
-7032 9607 0
-7052 9607 0
-7072 9607 0
-7092 9607 0
-7112 9607 0
-7132 9607 0
-7152 9607 0
-7172 9607 0
-9607 9586 6771 6791 6811 6831 6851 6871 6891 6911 6931 6972 6992 7012 7032 7052 7072 7092 7112 7132 7152 7172 0
-9587 9608 0
-6772 9608 0
-6792 9608 0
-6812 9608 0
-6832 9608 0
-6852 9608 0
-6872 9608 0
-6892 9608 0
-6912 9608 0
-6932 9608 0
-6952 9608 0
-6993 9608 0
-7013 9608 0
-7033 9608 0
-7053 9608 0
-7073 9608 0
-7093 9608 0
-7113 9608 0
-7133 9608 0
-7153 9608 0
-7173 9608 0
-9608 9587 6772 6792 6812 6832 6852 6872 6892 6912 6932 6952 6993 7013 7033 7053 7073 7093 7113 7133 7153 7173 0
-9588 9609 0
-6773 9609 0
-6793 9609 0
-6813 9609 0
-6833 9609 0
-6853 9609 0
-6873 9609 0
-6893 9609 0
-6913 9609 0
-6933 9609 0
-6953 9609 0
-6973 9609 0
-7014 9609 0
-7034 9609 0
-7054 9609 0
-7074 9609 0
-7094 9609 0
-7114 9609 0
-7134 9609 0
-7154 9609 0
-7174 9609 0
-9609 9588 6773 6793 6813 6833 6853 6873 6893 6913 6933 6953 6973 7014 7034 7054 7074 7094 7114 7134 7154 7174 0
-9589 9610 0
-6774 9610 0
-6794 9610 0
-6814 9610 0
-6834 9610 0
-6854 9610 0
-6874 9610 0
-6894 9610 0
-6914 9610 0
-6934 9610 0
-6954 9610 0
-6974 9610 0
-6994 9610 0
-7035 9610 0
-7055 9610 0
-7075 9610 0
-7095 9610 0
-7115 9610 0
-7135 9610 0
-7155 9610 0
-7175 9610 0
-9610 9589 6774 6794 6814 6834 6854 6874 6894 6914 6934 6954 6974 6994 7035 7055 7075 7095 7115 7135 7155 7175 0
-9590 9611 0
-6775 9611 0
-6795 9611 0
-6815 9611 0
-6835 9611 0
-6855 9611 0
-6875 9611 0
-6895 9611 0
-6915 9611 0
-6935 9611 0
-6955 9611 0
-6975 9611 0
-6995 9611 0
-7015 9611 0
-7056 9611 0
-7076 9611 0
-7096 9611 0
-7116 9611 0
-7136 9611 0
-7156 9611 0
-7176 9611 0
-9611 9590 6775 6795 6815 6835 6855 6875 6895 6915 6935 6955 6975 6995 7015 7056 7076 7096 7116 7136 7156 7176 0
-9591 9612 0
-6776 9612 0
-6796 9612 0
-6816 9612 0
-6836 9612 0
-6856 9612 0
-6876 9612 0
-6896 9612 0
-6916 9612 0
-6936 9612 0
-6956 9612 0
-6976 9612 0
-6996 9612 0
-7016 9612 0
-7036 9612 0
-7077 9612 0
-7097 9612 0
-7117 9612 0
-7137 9612 0
-7157 9612 0
-7177 9612 0
-9612 9591 6776 6796 6816 6836 6856 6876 6896 6916 6936 6956 6976 6996 7016 7036 7077 7097 7117 7137 7157 7177 0
-9592 9613 0
-6777 9613 0
-6797 9613 0
-6817 9613 0
-6837 9613 0
-6857 9613 0
-6877 9613 0
-6897 9613 0
-6917 9613 0
-6937 9613 0
-6957 9613 0
-6977 9613 0
-6997 9613 0
-7017 9613 0
-7037 9613 0
-7057 9613 0
-7098 9613 0
-7118 9613 0
-7138 9613 0
-7158 9613 0
-7178 9613 0
-9613 9592 6777 6797 6817 6837 6857 6877 6897 6917 6937 6957 6977 6997 7017 7037 7057 7098 7118 7138 7158 7178 0
-9593 9614 0
-6778 9614 0
-6798 9614 0
-6818 9614 0
-6838 9614 0
-6858 9614 0
-6878 9614 0
-6898 9614 0
-6918 9614 0
-6938 9614 0
-6958 9614 0
-6978 9614 0
-6998 9614 0
-7018 9614 0
-7038 9614 0
-7058 9614 0
-7078 9614 0
-7119 9614 0
-7139 9614 0
-7159 9614 0
-7179 9614 0
-9614 9593 6778 6798 6818 6838 6858 6878 6898 6918 6938 6958 6978 6998 7018 7038 7058 7078 7119 7139 7159 7179 0
-9594 9615 0
-6779 9615 0
-6799 9615 0
-6819 9615 0
-6839 9615 0
-6859 9615 0
-6879 9615 0
-6899 9615 0
-6919 9615 0
-6939 9615 0
-6959 9615 0
-6979 9615 0
-6999 9615 0
-7019 9615 0
-7039 9615 0
-7059 9615 0
-7079 9615 0
-7099 9615 0
-7140 9615 0
-7160 9615 0
-7180 9615 0
-9615 9594 6779 6799 6819 6839 6859 6879 6899 6919 6939 6959 6979 6999 7019 7039 7059 7079 7099 7140 7160 7180 0
-9595 9616 0
-6780 9616 0
-6800 9616 0
-6820 9616 0
-6840 9616 0
-6860 9616 0
-6880 9616 0
-6900 9616 0
-6920 9616 0
-6940 9616 0
-6960 9616 0
-6980 9616 0
-7000 9616 0
-7020 9616 0
-7040 9616 0
-7060 9616 0
-7080 9616 0
-7100 9616 0
-7120 9616 0
-7161 9616 0
-7181 9616 0
-9616 9595 6780 6800 6820 6840 6860 6880 6900 6920 6940 6960 6980 7000 7020 7040 7060 7080 7100 7120 7161 7181 0
-9596 9617 0
-6781 9617 0
-6801 9617 0
-6821 9617 0
-6841 9617 0
-6861 9617 0
-6881 9617 0
-6901 9617 0
-6921 9617 0
-6941 9617 0
-6961 9617 0
-6981 9617 0
-7001 9617 0
-7021 9617 0
-7041 9617 0
-7061 9617 0
-7081 9617 0
-7101 9617 0
-7121 9617 0
-7141 9617 0
-7182 9617 0
-9617 9596 6781 6801 6821 6841 6861 6881 6901 6921 6941 6961 6981 7001 7021 7041 7061 7081 7101 7121 7141 7182 0
-9597 9618 0
-6782 9618 0
-6802 9618 0
-6822 9618 0
-6842 9618 0
-6862 9618 0
-6882 9618 0
-6902 9618 0
-6922 9618 0
-6942 9618 0
-6962 9618 0
-6982 9618 0
-7002 9618 0
-7022 9618 0
-7042 9618 0
-7062 9618 0
-7082 9618 0
-7102 9618 0
-7122 9618 0
-7142 9618 0
-7162 9618 0
-9618 9597 6782 6802 6822 6842 6862 6882 6902 6922 6942 6962 6982 7002 7022 7042 7062 7082 7102 7122 7142 7162 0
-9598 9619 0
-7203 9619 0
-7223 9619 0
-7243 9619 0
-7263 9619 0
-7283 9619 0
-7303 9619 0
-7323 9619 0
-7343 9619 0
-7363 9619 0
-7383 9619 0
-7403 9619 0
-7423 9619 0
-7443 9619 0
-7463 9619 0
-7483 9619 0
-7503 9619 0
-7523 9619 0
-7543 9619 0
-7563 9619 0
-7583 9619 0
-9619 9598 7203 7223 7243 7263 7283 7303 7323 7343 7363 7383 7403 7423 7443 7463 7483 7503 7523 7543 7563 7583 0
-9599 9620 0
-7183 9620 0
-7224 9620 0
-7244 9620 0
-7264 9620 0
-7284 9620 0
-7304 9620 0
-7324 9620 0
-7344 9620 0
-7364 9620 0
-7384 9620 0
-7404 9620 0
-7424 9620 0
-7444 9620 0
-7464 9620 0
-7484 9620 0
-7504 9620 0
-7524 9620 0
-7544 9620 0
-7564 9620 0
-7584 9620 0
-9620 9599 7183 7224 7244 7264 7284 7304 7324 7344 7364 7384 7404 7424 7444 7464 7484 7504 7524 7544 7564 7584 0
-9600 9621 0
-7184 9621 0
-7204 9621 0
-7245 9621 0
-7265 9621 0
-7285 9621 0
-7305 9621 0
-7325 9621 0
-7345 9621 0
-7365 9621 0
-7385 9621 0
-7405 9621 0
-7425 9621 0
-7445 9621 0
-7465 9621 0
-7485 9621 0
-7505 9621 0
-7525 9621 0
-7545 9621 0
-7565 9621 0
-7585 9621 0
-9621 9600 7184 7204 7245 7265 7285 7305 7325 7345 7365 7385 7405 7425 7445 7465 7485 7505 7525 7545 7565 7585 0
-9601 9622 0
-7185 9622 0
-7205 9622 0
-7225 9622 0
-7266 9622 0
-7286 9622 0
-7306 9622 0
-7326 9622 0
-7346 9622 0
-7366 9622 0
-7386 9622 0
-7406 9622 0
-7426 9622 0
-7446 9622 0
-7466 9622 0
-7486 9622 0
-7506 9622 0
-7526 9622 0
-7546 9622 0
-7566 9622 0
-7586 9622 0
-9622 9601 7185 7205 7225 7266 7286 7306 7326 7346 7366 7386 7406 7426 7446 7466 7486 7506 7526 7546 7566 7586 0
-9602 9623 0
-7186 9623 0
-7206 9623 0
-7226 9623 0
-7246 9623 0
-7287 9623 0
-7307 9623 0
-7327 9623 0
-7347 9623 0
-7367 9623 0
-7387 9623 0
-7407 9623 0
-7427 9623 0
-7447 9623 0
-7467 9623 0
-7487 9623 0
-7507 9623 0
-7527 9623 0
-7547 9623 0
-7567 9623 0
-7587 9623 0
-9623 9602 7186 7206 7226 7246 7287 7307 7327 7347 7367 7387 7407 7427 7447 7467 7487 7507 7527 7547 7567 7587 0
-9603 9624 0
-7187 9624 0
-7207 9624 0
-7227 9624 0
-7247 9624 0
-7267 9624 0
-7308 9624 0
-7328 9624 0
-7348 9624 0
-7368 9624 0
-7388 9624 0
-7408 9624 0
-7428 9624 0
-7448 9624 0
-7468 9624 0
-7488 9624 0
-7508 9624 0
-7528 9624 0
-7548 9624 0
-7568 9624 0
-7588 9624 0
-9624 9603 7187 7207 7227 7247 7267 7308 7328 7348 7368 7388 7408 7428 7448 7468 7488 7508 7528 7548 7568 7588 0
-9604 9625 0
-7188 9625 0
-7208 9625 0
-7228 9625 0
-7248 9625 0
-7268 9625 0
-7288 9625 0
-7329 9625 0
-7349 9625 0
-7369 9625 0
-7389 9625 0
-7409 9625 0
-7429 9625 0
-7449 9625 0
-7469 9625 0
-7489 9625 0
-7509 9625 0
-7529 9625 0
-7549 9625 0
-7569 9625 0
-7589 9625 0
-9625 9604 7188 7208 7228 7248 7268 7288 7329 7349 7369 7389 7409 7429 7449 7469 7489 7509 7529 7549 7569 7589 0
-9605 9626 0
-7189 9626 0
-7209 9626 0
-7229 9626 0
-7249 9626 0
-7269 9626 0
-7289 9626 0
-7309 9626 0
-7350 9626 0
-7370 9626 0
-7390 9626 0
-7410 9626 0
-7430 9626 0
-7450 9626 0
-7470 9626 0
-7490 9626 0
-7510 9626 0
-7530 9626 0
-7550 9626 0
-7570 9626 0
-7590 9626 0
-9626 9605 7189 7209 7229 7249 7269 7289 7309 7350 7370 7390 7410 7430 7450 7470 7490 7510 7530 7550 7570 7590 0
-9606 9627 0
-7190 9627 0
-7210 9627 0
-7230 9627 0
-7250 9627 0
-7270 9627 0
-7290 9627 0
-7310 9627 0
-7330 9627 0
-7371 9627 0
-7391 9627 0
-7411 9627 0
-7431 9627 0
-7451 9627 0
-7471 9627 0
-7491 9627 0
-7511 9627 0
-7531 9627 0
-7551 9627 0
-7571 9627 0
-7591 9627 0
-9627 9606 7190 7210 7230 7250 7270 7290 7310 7330 7371 7391 7411 7431 7451 7471 7491 7511 7531 7551 7571 7591 0
-9607 9628 0
-7191 9628 0
-7211 9628 0
-7231 9628 0
-7251 9628 0
-7271 9628 0
-7291 9628 0
-7311 9628 0
-7331 9628 0
-7351 9628 0
-7392 9628 0
-7412 9628 0
-7432 9628 0
-7452 9628 0
-7472 9628 0
-7492 9628 0
-7512 9628 0
-7532 9628 0
-7552 9628 0
-7572 9628 0
-7592 9628 0
-9628 9607 7191 7211 7231 7251 7271 7291 7311 7331 7351 7392 7412 7432 7452 7472 7492 7512 7532 7552 7572 7592 0
-9608 9629 0
-7192 9629 0
-7212 9629 0
-7232 9629 0
-7252 9629 0
-7272 9629 0
-7292 9629 0
-7312 9629 0
-7332 9629 0
-7352 9629 0
-7372 9629 0
-7413 9629 0
-7433 9629 0
-7453 9629 0
-7473 9629 0
-7493 9629 0
-7513 9629 0
-7533 9629 0
-7553 9629 0
-7573 9629 0
-7593 9629 0
-9629 9608 7192 7212 7232 7252 7272 7292 7312 7332 7352 7372 7413 7433 7453 7473 7493 7513 7533 7553 7573 7593 0
-9609 9630 0
-7193 9630 0
-7213 9630 0
-7233 9630 0
-7253 9630 0
-7273 9630 0
-7293 9630 0
-7313 9630 0
-7333 9630 0
-7353 9630 0
-7373 9630 0
-7393 9630 0
-7434 9630 0
-7454 9630 0
-7474 9630 0
-7494 9630 0
-7514 9630 0
-7534 9630 0
-7554 9630 0
-7574 9630 0
-7594 9630 0
-9630 9609 7193 7213 7233 7253 7273 7293 7313 7333 7353 7373 7393 7434 7454 7474 7494 7514 7534 7554 7574 7594 0
-9610 9631 0
-7194 9631 0
-7214 9631 0
-7234 9631 0
-7254 9631 0
-7274 9631 0
-7294 9631 0
-7314 9631 0
-7334 9631 0
-7354 9631 0
-7374 9631 0
-7394 9631 0
-7414 9631 0
-7455 9631 0
-7475 9631 0
-7495 9631 0
-7515 9631 0
-7535 9631 0
-7555 9631 0
-7575 9631 0
-7595 9631 0
-9631 9610 7194 7214 7234 7254 7274 7294 7314 7334 7354 7374 7394 7414 7455 7475 7495 7515 7535 7555 7575 7595 0
-9611 9632 0
-7195 9632 0
-7215 9632 0
-7235 9632 0
-7255 9632 0
-7275 9632 0
-7295 9632 0
-7315 9632 0
-7335 9632 0
-7355 9632 0
-7375 9632 0
-7395 9632 0
-7415 9632 0
-7435 9632 0
-7476 9632 0
-7496 9632 0
-7516 9632 0
-7536 9632 0
-7556 9632 0
-7576 9632 0
-7596 9632 0
-9632 9611 7195 7215 7235 7255 7275 7295 7315 7335 7355 7375 7395 7415 7435 7476 7496 7516 7536 7556 7576 7596 0
-9612 9633 0
-7196 9633 0
-7216 9633 0
-7236 9633 0
-7256 9633 0
-7276 9633 0
-7296 9633 0
-7316 9633 0
-7336 9633 0
-7356 9633 0
-7376 9633 0
-7396 9633 0
-7416 9633 0
-7436 9633 0
-7456 9633 0
-7497 9633 0
-7517 9633 0
-7537 9633 0
-7557 9633 0
-7577 9633 0
-7597 9633 0
-9633 9612 7196 7216 7236 7256 7276 7296 7316 7336 7356 7376 7396 7416 7436 7456 7497 7517 7537 7557 7577 7597 0
-9613 9634 0
-7197 9634 0
-7217 9634 0
-7237 9634 0
-7257 9634 0
-7277 9634 0
-7297 9634 0
-7317 9634 0
-7337 9634 0
-7357 9634 0
-7377 9634 0
-7397 9634 0
-7417 9634 0
-7437 9634 0
-7457 9634 0
-7477 9634 0
-7518 9634 0
-7538 9634 0
-7558 9634 0
-7578 9634 0
-7598 9634 0
-9634 9613 7197 7217 7237 7257 7277 7297 7317 7337 7357 7377 7397 7417 7437 7457 7477 7518 7538 7558 7578 7598 0
-9614 9635 0
-7198 9635 0
-7218 9635 0
-7238 9635 0
-7258 9635 0
-7278 9635 0
-7298 9635 0
-7318 9635 0
-7338 9635 0
-7358 9635 0
-7378 9635 0
-7398 9635 0
-7418 9635 0
-7438 9635 0
-7458 9635 0
-7478 9635 0
-7498 9635 0
-7539 9635 0
-7559 9635 0
-7579 9635 0
-7599 9635 0
-9635 9614 7198 7218 7238 7258 7278 7298 7318 7338 7358 7378 7398 7418 7438 7458 7478 7498 7539 7559 7579 7599 0
-9615 9636 0
-7199 9636 0
-7219 9636 0
-7239 9636 0
-7259 9636 0
-7279 9636 0
-7299 9636 0
-7319 9636 0
-7339 9636 0
-7359 9636 0
-7379 9636 0
-7399 9636 0
-7419 9636 0
-7439 9636 0
-7459 9636 0
-7479 9636 0
-7499 9636 0
-7519 9636 0
-7560 9636 0
-7580 9636 0
-7600 9636 0
-9636 9615 7199 7219 7239 7259 7279 7299 7319 7339 7359 7379 7399 7419 7439 7459 7479 7499 7519 7560 7580 7600 0
-9616 9637 0
-7200 9637 0
-7220 9637 0
-7240 9637 0
-7260 9637 0
-7280 9637 0
-7300 9637 0
-7320 9637 0
-7340 9637 0
-7360 9637 0
-7380 9637 0
-7400 9637 0
-7420 9637 0
-7440 9637 0
-7460 9637 0
-7480 9637 0
-7500 9637 0
-7520 9637 0
-7540 9637 0
-7581 9637 0
-7601 9637 0
-9637 9616 7200 7220 7240 7260 7280 7300 7320 7340 7360 7380 7400 7420 7440 7460 7480 7500 7520 7540 7581 7601 0
-9617 9638 0
-7201 9638 0
-7221 9638 0
-7241 9638 0
-7261 9638 0
-7281 9638 0
-7301 9638 0
-7321 9638 0
-7341 9638 0
-7361 9638 0
-7381 9638 0
-7401 9638 0
-7421 9638 0
-7441 9638 0
-7461 9638 0
-7481 9638 0
-7501 9638 0
-7521 9638 0
-7541 9638 0
-7561 9638 0
-7602 9638 0
-9638 9617 7201 7221 7241 7261 7281 7301 7321 7341 7361 7381 7401 7421 7441 7461 7481 7501 7521 7541 7561 7602 0
-9618 9639 0
-7202 9639 0
-7222 9639 0
-7242 9639 0
-7262 9639 0
-7282 9639 0
-7302 9639 0
-7322 9639 0
-7342 9639 0
-7362 9639 0
-7382 9639 0
-7402 9639 0
-7422 9639 0
-7442 9639 0
-7462 9639 0
-7482 9639 0
-7502 9639 0
-7522 9639 0
-7542 9639 0
-7562 9639 0
-7582 9639 0
-9639 9618 7202 7222 7242 7262 7282 7302 7322 7342 7362 7382 7402 7422 7442 7462 7482 7502 7522 7542 7562 7582 0
-9619 9640 0
-7623 9640 0
-7643 9640 0
-7663 9640 0
-7683 9640 0
-7703 9640 0
-7723 9640 0
-7743 9640 0
-7763 9640 0
-7783 9640 0
-7803 9640 0
-7823 9640 0
-7843 9640 0
-7863 9640 0
-7883 9640 0
-7903 9640 0
-7923 9640 0
-7943 9640 0
-7963 9640 0
-7983 9640 0
-8003 9640 0
-9640 9619 7623 7643 7663 7683 7703 7723 7743 7763 7783 7803 7823 7843 7863 7883 7903 7923 7943 7963 7983 8003 0
-9620 9641 0
-7603 9641 0
-7644 9641 0
-7664 9641 0
-7684 9641 0
-7704 9641 0
-7724 9641 0
-7744 9641 0
-7764 9641 0
-7784 9641 0
-7804 9641 0
-7824 9641 0
-7844 9641 0
-7864 9641 0
-7884 9641 0
-7904 9641 0
-7924 9641 0
-7944 9641 0
-7964 9641 0
-7984 9641 0
-8004 9641 0
-9641 9620 7603 7644 7664 7684 7704 7724 7744 7764 7784 7804 7824 7844 7864 7884 7904 7924 7944 7964 7984 8004 0
-9621 9642 0
-7604 9642 0
-7624 9642 0
-7665 9642 0
-7685 9642 0
-7705 9642 0
-7725 9642 0
-7745 9642 0
-7765 9642 0
-7785 9642 0
-7805 9642 0
-7825 9642 0
-7845 9642 0
-7865 9642 0
-7885 9642 0
-7905 9642 0
-7925 9642 0
-7945 9642 0
-7965 9642 0
-7985 9642 0
-8005 9642 0
-9642 9621 7604 7624 7665 7685 7705 7725 7745 7765 7785 7805 7825 7845 7865 7885 7905 7925 7945 7965 7985 8005 0
-9622 9643 0
-7605 9643 0
-7625 9643 0
-7645 9643 0
-7686 9643 0
-7706 9643 0
-7726 9643 0
-7746 9643 0
-7766 9643 0
-7786 9643 0
-7806 9643 0
-7826 9643 0
-7846 9643 0
-7866 9643 0
-7886 9643 0
-7906 9643 0
-7926 9643 0
-7946 9643 0
-7966 9643 0
-7986 9643 0
-8006 9643 0
-9643 9622 7605 7625 7645 7686 7706 7726 7746 7766 7786 7806 7826 7846 7866 7886 7906 7926 7946 7966 7986 8006 0
-9623 9644 0
-7606 9644 0
-7626 9644 0
-7646 9644 0
-7666 9644 0
-7707 9644 0
-7727 9644 0
-7747 9644 0
-7767 9644 0
-7787 9644 0
-7807 9644 0
-7827 9644 0
-7847 9644 0
-7867 9644 0
-7887 9644 0
-7907 9644 0
-7927 9644 0
-7947 9644 0
-7967 9644 0
-7987 9644 0
-8007 9644 0
-9644 9623 7606 7626 7646 7666 7707 7727 7747 7767 7787 7807 7827 7847 7867 7887 7907 7927 7947 7967 7987 8007 0
-9624 9645 0
-7607 9645 0
-7627 9645 0
-7647 9645 0
-7667 9645 0
-7687 9645 0
-7728 9645 0
-7748 9645 0
-7768 9645 0
-7788 9645 0
-7808 9645 0
-7828 9645 0
-7848 9645 0
-7868 9645 0
-7888 9645 0
-7908 9645 0
-7928 9645 0
-7948 9645 0
-7968 9645 0
-7988 9645 0
-8008 9645 0
-9645 9624 7607 7627 7647 7667 7687 7728 7748 7768 7788 7808 7828 7848 7868 7888 7908 7928 7948 7968 7988 8008 0
-9625 9646 0
-7608 9646 0
-7628 9646 0
-7648 9646 0
-7668 9646 0
-7688 9646 0
-7708 9646 0
-7749 9646 0
-7769 9646 0
-7789 9646 0
-7809 9646 0
-7829 9646 0
-7849 9646 0
-7869 9646 0
-7889 9646 0
-7909 9646 0
-7929 9646 0
-7949 9646 0
-7969 9646 0
-7989 9646 0
-8009 9646 0
-9646 9625 7608 7628 7648 7668 7688 7708 7749 7769 7789 7809 7829 7849 7869 7889 7909 7929 7949 7969 7989 8009 0
-9626 9647 0
-7609 9647 0
-7629 9647 0
-7649 9647 0
-7669 9647 0
-7689 9647 0
-7709 9647 0
-7729 9647 0
-7770 9647 0
-7790 9647 0
-7810 9647 0
-7830 9647 0
-7850 9647 0
-7870 9647 0
-7890 9647 0
-7910 9647 0
-7930 9647 0
-7950 9647 0
-7970 9647 0
-7990 9647 0
-8010 9647 0
-9647 9626 7609 7629 7649 7669 7689 7709 7729 7770 7790 7810 7830 7850 7870 7890 7910 7930 7950 7970 7990 8010 0
-9627 9648 0
-7610 9648 0
-7630 9648 0
-7650 9648 0
-7670 9648 0
-7690 9648 0
-7710 9648 0
-7730 9648 0
-7750 9648 0
-7791 9648 0
-7811 9648 0
-7831 9648 0
-7851 9648 0
-7871 9648 0
-7891 9648 0
-7911 9648 0
-7931 9648 0
-7951 9648 0
-7971 9648 0
-7991 9648 0
-8011 9648 0
-9648 9627 7610 7630 7650 7670 7690 7710 7730 7750 7791 7811 7831 7851 7871 7891 7911 7931 7951 7971 7991 8011 0
-9628 9649 0
-7611 9649 0
-7631 9649 0
-7651 9649 0
-7671 9649 0
-7691 9649 0
-7711 9649 0
-7731 9649 0
-7751 9649 0
-7771 9649 0
-7812 9649 0
-7832 9649 0
-7852 9649 0
-7872 9649 0
-7892 9649 0
-7912 9649 0
-7932 9649 0
-7952 9649 0
-7972 9649 0
-7992 9649 0
-8012 9649 0
-9649 9628 7611 7631 7651 7671 7691 7711 7731 7751 7771 7812 7832 7852 7872 7892 7912 7932 7952 7972 7992 8012 0
-9629 9650 0
-7612 9650 0
-7632 9650 0
-7652 9650 0
-7672 9650 0
-7692 9650 0
-7712 9650 0
-7732 9650 0
-7752 9650 0
-7772 9650 0
-7792 9650 0
-7833 9650 0
-7853 9650 0
-7873 9650 0
-7893 9650 0
-7913 9650 0
-7933 9650 0
-7953 9650 0
-7973 9650 0
-7993 9650 0
-8013 9650 0
-9650 9629 7612 7632 7652 7672 7692 7712 7732 7752 7772 7792 7833 7853 7873 7893 7913 7933 7953 7973 7993 8013 0
-9630 9651 0
-7613 9651 0
-7633 9651 0
-7653 9651 0
-7673 9651 0
-7693 9651 0
-7713 9651 0
-7733 9651 0
-7753 9651 0
-7773 9651 0
-7793 9651 0
-7813 9651 0
-7854 9651 0
-7874 9651 0
-7894 9651 0
-7914 9651 0
-7934 9651 0
-7954 9651 0
-7974 9651 0
-7994 9651 0
-8014 9651 0
-9651 9630 7613 7633 7653 7673 7693 7713 7733 7753 7773 7793 7813 7854 7874 7894 7914 7934 7954 7974 7994 8014 0
-9631 9652 0
-7614 9652 0
-7634 9652 0
-7654 9652 0
-7674 9652 0
-7694 9652 0
-7714 9652 0
-7734 9652 0
-7754 9652 0
-7774 9652 0
-7794 9652 0
-7814 9652 0
-7834 9652 0
-7875 9652 0
-7895 9652 0
-7915 9652 0
-7935 9652 0
-7955 9652 0
-7975 9652 0
-7995 9652 0
-8015 9652 0
-9652 9631 7614 7634 7654 7674 7694 7714 7734 7754 7774 7794 7814 7834 7875 7895 7915 7935 7955 7975 7995 8015 0
-9632 9653 0
-7615 9653 0
-7635 9653 0
-7655 9653 0
-7675 9653 0
-7695 9653 0
-7715 9653 0
-7735 9653 0
-7755 9653 0
-7775 9653 0
-7795 9653 0
-7815 9653 0
-7835 9653 0
-7855 9653 0
-7896 9653 0
-7916 9653 0
-7936 9653 0
-7956 9653 0
-7976 9653 0
-7996 9653 0
-8016 9653 0
-9653 9632 7615 7635 7655 7675 7695 7715 7735 7755 7775 7795 7815 7835 7855 7896 7916 7936 7956 7976 7996 8016 0
-9633 9654 0
-7616 9654 0
-7636 9654 0
-7656 9654 0
-7676 9654 0
-7696 9654 0
-7716 9654 0
-7736 9654 0
-7756 9654 0
-7776 9654 0
-7796 9654 0
-7816 9654 0
-7836 9654 0
-7856 9654 0
-7876 9654 0
-7917 9654 0
-7937 9654 0
-7957 9654 0
-7977 9654 0
-7997 9654 0
-8017 9654 0
-9654 9633 7616 7636 7656 7676 7696 7716 7736 7756 7776 7796 7816 7836 7856 7876 7917 7937 7957 7977 7997 8017 0
-9634 9655 0
-7617 9655 0
-7637 9655 0
-7657 9655 0
-7677 9655 0
-7697 9655 0
-7717 9655 0
-7737 9655 0
-7757 9655 0
-7777 9655 0
-7797 9655 0
-7817 9655 0
-7837 9655 0
-7857 9655 0
-7877 9655 0
-7897 9655 0
-7938 9655 0
-7958 9655 0
-7978 9655 0
-7998 9655 0
-8018 9655 0
-9655 9634 7617 7637 7657 7677 7697 7717 7737 7757 7777 7797 7817 7837 7857 7877 7897 7938 7958 7978 7998 8018 0
-9635 9656 0
-7618 9656 0
-7638 9656 0
-7658 9656 0
-7678 9656 0
-7698 9656 0
-7718 9656 0
-7738 9656 0
-7758 9656 0
-7778 9656 0
-7798 9656 0
-7818 9656 0
-7838 9656 0
-7858 9656 0
-7878 9656 0
-7898 9656 0
-7918 9656 0
-7959 9656 0
-7979 9656 0
-7999 9656 0
-8019 9656 0
-9656 9635 7618 7638 7658 7678 7698 7718 7738 7758 7778 7798 7818 7838 7858 7878 7898 7918 7959 7979 7999 8019 0
-9636 9657 0
-7619 9657 0
-7639 9657 0
-7659 9657 0
-7679 9657 0
-7699 9657 0
-7719 9657 0
-7739 9657 0
-7759 9657 0
-7779 9657 0
-7799 9657 0
-7819 9657 0
-7839 9657 0
-7859 9657 0
-7879 9657 0
-7899 9657 0
-7919 9657 0
-7939 9657 0
-7980 9657 0
-8000 9657 0
-8020 9657 0
-9657 9636 7619 7639 7659 7679 7699 7719 7739 7759 7779 7799 7819 7839 7859 7879 7899 7919 7939 7980 8000 8020 0
-9637 9658 0
-7620 9658 0
-7640 9658 0
-7660 9658 0
-7680 9658 0
-7700 9658 0
-7720 9658 0
-7740 9658 0
-7760 9658 0
-7780 9658 0
-7800 9658 0
-7820 9658 0
-7840 9658 0
-7860 9658 0
-7880 9658 0
-7900 9658 0
-7920 9658 0
-7940 9658 0
-7960 9658 0
-8001 9658 0
-8021 9658 0
-9658 9637 7620 7640 7660 7680 7700 7720 7740 7760 7780 7800 7820 7840 7860 7880 7900 7920 7940 7960 8001 8021 0
-9638 9659 0
-7621 9659 0
-7641 9659 0
-7661 9659 0
-7681 9659 0
-7701 9659 0
-7721 9659 0
-7741 9659 0
-7761 9659 0
-7781 9659 0
-7801 9659 0
-7821 9659 0
-7841 9659 0
-7861 9659 0
-7881 9659 0
-7901 9659 0
-7921 9659 0
-7941 9659 0
-7961 9659 0
-7981 9659 0
-8022 9659 0
-9659 9638 7621 7641 7661 7681 7701 7721 7741 7761 7781 7801 7821 7841 7861 7881 7901 7921 7941 7961 7981 8022 0
-9639 9660 0
-7622 9660 0
-7642 9660 0
-7662 9660 0
-7682 9660 0
-7702 9660 0
-7722 9660 0
-7742 9660 0
-7762 9660 0
-7782 9660 0
-7802 9660 0
-7822 9660 0
-7842 9660 0
-7862 9660 0
-7882 9660 0
-7902 9660 0
-7922 9660 0
-7942 9660 0
-7962 9660 0
-7982 9660 0
-8002 9660 0
-9660 9639 7622 7642 7662 7682 7702 7722 7742 7762 7782 7802 7822 7842 7862 7882 7902 7922 7942 7962 7982 8002 0
-9640 9661 0
-8043 9661 0
-8063 9661 0
-8083 9661 0
-8103 9661 0
-8123 9661 0
-8143 9661 0
-8163 9661 0
-8183 9661 0
-8203 9661 0
-8223 9661 0
-8243 9661 0
-8263 9661 0
-8283 9661 0
-8303 9661 0
-8323 9661 0
-8343 9661 0
-8363 9661 0
-8383 9661 0
-8403 9661 0
-8423 9661 0
-9661 9640 8043 8063 8083 8103 8123 8143 8163 8183 8203 8223 8243 8263 8283 8303 8323 8343 8363 8383 8403 8423 0
-9641 9662 0
-8023 9662 0
-8064 9662 0
-8084 9662 0
-8104 9662 0
-8124 9662 0
-8144 9662 0
-8164 9662 0
-8184 9662 0
-8204 9662 0
-8224 9662 0
-8244 9662 0
-8264 9662 0
-8284 9662 0
-8304 9662 0
-8324 9662 0
-8344 9662 0
-8364 9662 0
-8384 9662 0
-8404 9662 0
-8424 9662 0
-9662 9641 8023 8064 8084 8104 8124 8144 8164 8184 8204 8224 8244 8264 8284 8304 8324 8344 8364 8384 8404 8424 0
-9642 9663 0
-8024 9663 0
-8044 9663 0
-8085 9663 0
-8105 9663 0
-8125 9663 0
-8145 9663 0
-8165 9663 0
-8185 9663 0
-8205 9663 0
-8225 9663 0
-8245 9663 0
-8265 9663 0
-8285 9663 0
-8305 9663 0
-8325 9663 0
-8345 9663 0
-8365 9663 0
-8385 9663 0
-8405 9663 0
-8425 9663 0
-9663 9642 8024 8044 8085 8105 8125 8145 8165 8185 8205 8225 8245 8265 8285 8305 8325 8345 8365 8385 8405 8425 0
-9643 9664 0
-8025 9664 0
-8045 9664 0
-8065 9664 0
-8106 9664 0
-8126 9664 0
-8146 9664 0
-8166 9664 0
-8186 9664 0
-8206 9664 0
-8226 9664 0
-8246 9664 0
-8266 9664 0
-8286 9664 0
-8306 9664 0
-8326 9664 0
-8346 9664 0
-8366 9664 0
-8386 9664 0
-8406 9664 0
-8426 9664 0
-9664 9643 8025 8045 8065 8106 8126 8146 8166 8186 8206 8226 8246 8266 8286 8306 8326 8346 8366 8386 8406 8426 0
-9644 9665 0
-8026 9665 0
-8046 9665 0
-8066 9665 0
-8086 9665 0
-8127 9665 0
-8147 9665 0
-8167 9665 0
-8187 9665 0
-8207 9665 0
-8227 9665 0
-8247 9665 0
-8267 9665 0
-8287 9665 0
-8307 9665 0
-8327 9665 0
-8347 9665 0
-8367 9665 0
-8387 9665 0
-8407 9665 0
-8427 9665 0
-9665 9644 8026 8046 8066 8086 8127 8147 8167 8187 8207 8227 8247 8267 8287 8307 8327 8347 8367 8387 8407 8427 0
-9645 9666 0
-8027 9666 0
-8047 9666 0
-8067 9666 0
-8087 9666 0
-8107 9666 0
-8148 9666 0
-8168 9666 0
-8188 9666 0
-8208 9666 0
-8228 9666 0
-8248 9666 0
-8268 9666 0
-8288 9666 0
-8308 9666 0
-8328 9666 0
-8348 9666 0
-8368 9666 0
-8388 9666 0
-8408 9666 0
-8428 9666 0
-9666 9645 8027 8047 8067 8087 8107 8148 8168 8188 8208 8228 8248 8268 8288 8308 8328 8348 8368 8388 8408 8428 0
-9646 9667 0
-8028 9667 0
-8048 9667 0
-8068 9667 0
-8088 9667 0
-8108 9667 0
-8128 9667 0
-8169 9667 0
-8189 9667 0
-8209 9667 0
-8229 9667 0
-8249 9667 0
-8269 9667 0
-8289 9667 0
-8309 9667 0
-8329 9667 0
-8349 9667 0
-8369 9667 0
-8389 9667 0
-8409 9667 0
-8429 9667 0
-9667 9646 8028 8048 8068 8088 8108 8128 8169 8189 8209 8229 8249 8269 8289 8309 8329 8349 8369 8389 8409 8429 0
-9647 9668 0
-8029 9668 0
-8049 9668 0
-8069 9668 0
-8089 9668 0
-8109 9668 0
-8129 9668 0
-8149 9668 0
-8190 9668 0
-8210 9668 0
-8230 9668 0
-8250 9668 0
-8270 9668 0
-8290 9668 0
-8310 9668 0
-8330 9668 0
-8350 9668 0
-8370 9668 0
-8390 9668 0
-8410 9668 0
-8430 9668 0
-9668 9647 8029 8049 8069 8089 8109 8129 8149 8190 8210 8230 8250 8270 8290 8310 8330 8350 8370 8390 8410 8430 0
-9648 9669 0
-8030 9669 0
-8050 9669 0
-8070 9669 0
-8090 9669 0
-8110 9669 0
-8130 9669 0
-8150 9669 0
-8170 9669 0
-8211 9669 0
-8231 9669 0
-8251 9669 0
-8271 9669 0
-8291 9669 0
-8311 9669 0
-8331 9669 0
-8351 9669 0
-8371 9669 0
-8391 9669 0
-8411 9669 0
-8431 9669 0
-9669 9648 8030 8050 8070 8090 8110 8130 8150 8170 8211 8231 8251 8271 8291 8311 8331 8351 8371 8391 8411 8431 0
-9649 9670 0
-8031 9670 0
-8051 9670 0
-8071 9670 0
-8091 9670 0
-8111 9670 0
-8131 9670 0
-8151 9670 0
-8171 9670 0
-8191 9670 0
-8232 9670 0
-8252 9670 0
-8272 9670 0
-8292 9670 0
-8312 9670 0
-8332 9670 0
-8352 9670 0
-8372 9670 0
-8392 9670 0
-8412 9670 0
-8432 9670 0
-9670 9649 8031 8051 8071 8091 8111 8131 8151 8171 8191 8232 8252 8272 8292 8312 8332 8352 8372 8392 8412 8432 0
-9650 9671 0
-8032 9671 0
-8052 9671 0
-8072 9671 0
-8092 9671 0
-8112 9671 0
-8132 9671 0
-8152 9671 0
-8172 9671 0
-8192 9671 0
-8212 9671 0
-8253 9671 0
-8273 9671 0
-8293 9671 0
-8313 9671 0
-8333 9671 0
-8353 9671 0
-8373 9671 0
-8393 9671 0
-8413 9671 0
-8433 9671 0
-9671 9650 8032 8052 8072 8092 8112 8132 8152 8172 8192 8212 8253 8273 8293 8313 8333 8353 8373 8393 8413 8433 0
-9651 9672 0
-8033 9672 0
-8053 9672 0
-8073 9672 0
-8093 9672 0
-8113 9672 0
-8133 9672 0
-8153 9672 0
-8173 9672 0
-8193 9672 0
-8213 9672 0
-8233 9672 0
-8274 9672 0
-8294 9672 0
-8314 9672 0
-8334 9672 0
-8354 9672 0
-8374 9672 0
-8394 9672 0
-8414 9672 0
-8434 9672 0
-9672 9651 8033 8053 8073 8093 8113 8133 8153 8173 8193 8213 8233 8274 8294 8314 8334 8354 8374 8394 8414 8434 0
-9652 9673 0
-8034 9673 0
-8054 9673 0
-8074 9673 0
-8094 9673 0
-8114 9673 0
-8134 9673 0
-8154 9673 0
-8174 9673 0
-8194 9673 0
-8214 9673 0
-8234 9673 0
-8254 9673 0
-8295 9673 0
-8315 9673 0
-8335 9673 0
-8355 9673 0
-8375 9673 0
-8395 9673 0
-8415 9673 0
-8435 9673 0
-9673 9652 8034 8054 8074 8094 8114 8134 8154 8174 8194 8214 8234 8254 8295 8315 8335 8355 8375 8395 8415 8435 0
-9653 9674 0
-8035 9674 0
-8055 9674 0
-8075 9674 0
-8095 9674 0
-8115 9674 0
-8135 9674 0
-8155 9674 0
-8175 9674 0
-8195 9674 0
-8215 9674 0
-8235 9674 0
-8255 9674 0
-8275 9674 0
-8316 9674 0
-8336 9674 0
-8356 9674 0
-8376 9674 0
-8396 9674 0
-8416 9674 0
-8436 9674 0
-9674 9653 8035 8055 8075 8095 8115 8135 8155 8175 8195 8215 8235 8255 8275 8316 8336 8356 8376 8396 8416 8436 0
-9654 9675 0
-8036 9675 0
-8056 9675 0
-8076 9675 0
-8096 9675 0
-8116 9675 0
-8136 9675 0
-8156 9675 0
-8176 9675 0
-8196 9675 0
-8216 9675 0
-8236 9675 0
-8256 9675 0
-8276 9675 0
-8296 9675 0
-8337 9675 0
-8357 9675 0
-8377 9675 0
-8397 9675 0
-8417 9675 0
-8437 9675 0
-9675 9654 8036 8056 8076 8096 8116 8136 8156 8176 8196 8216 8236 8256 8276 8296 8337 8357 8377 8397 8417 8437 0
-9655 9676 0
-8037 9676 0
-8057 9676 0
-8077 9676 0
-8097 9676 0
-8117 9676 0
-8137 9676 0
-8157 9676 0
-8177 9676 0
-8197 9676 0
-8217 9676 0
-8237 9676 0
-8257 9676 0
-8277 9676 0
-8297 9676 0
-8317 9676 0
-8358 9676 0
-8378 9676 0
-8398 9676 0
-8418 9676 0
-8438 9676 0
-9676 9655 8037 8057 8077 8097 8117 8137 8157 8177 8197 8217 8237 8257 8277 8297 8317 8358 8378 8398 8418 8438 0
-9656 9677 0
-8038 9677 0
-8058 9677 0
-8078 9677 0
-8098 9677 0
-8118 9677 0
-8138 9677 0
-8158 9677 0
-8178 9677 0
-8198 9677 0
-8218 9677 0
-8238 9677 0
-8258 9677 0
-8278 9677 0
-8298 9677 0
-8318 9677 0
-8338 9677 0
-8379 9677 0
-8399 9677 0
-8419 9677 0
-8439 9677 0
-9677 9656 8038 8058 8078 8098 8118 8138 8158 8178 8198 8218 8238 8258 8278 8298 8318 8338 8379 8399 8419 8439 0
-9657 9678 0
-8039 9678 0
-8059 9678 0
-8079 9678 0
-8099 9678 0
-8119 9678 0
-8139 9678 0
-8159 9678 0
-8179 9678 0
-8199 9678 0
-8219 9678 0
-8239 9678 0
-8259 9678 0
-8279 9678 0
-8299 9678 0
-8319 9678 0
-8339 9678 0
-8359 9678 0
-8400 9678 0
-8420 9678 0
-8440 9678 0
-9678 9657 8039 8059 8079 8099 8119 8139 8159 8179 8199 8219 8239 8259 8279 8299 8319 8339 8359 8400 8420 8440 0
-9658 9679 0
-8040 9679 0
-8060 9679 0
-8080 9679 0
-8100 9679 0
-8120 9679 0
-8140 9679 0
-8160 9679 0
-8180 9679 0
-8200 9679 0
-8220 9679 0
-8240 9679 0
-8260 9679 0
-8280 9679 0
-8300 9679 0
-8320 9679 0
-8340 9679 0
-8360 9679 0
-8380 9679 0
-8421 9679 0
-8441 9679 0
-9679 9658 8040 8060 8080 8100 8120 8140 8160 8180 8200 8220 8240 8260 8280 8300 8320 8340 8360 8380 8421 8441 0
-9659 9680 0
-8041 9680 0
-8061 9680 0
-8081 9680 0
-8101 9680 0
-8121 9680 0
-8141 9680 0
-8161 9680 0
-8181 9680 0
-8201 9680 0
-8221 9680 0
-8241 9680 0
-8261 9680 0
-8281 9680 0
-8301 9680 0
-8321 9680 0
-8341 9680 0
-8361 9680 0
-8381 9680 0
-8401 9680 0
-8442 9680 0
-9680 9659 8041 8061 8081 8101 8121 8141 8161 8181 8201 8221 8241 8261 8281 8301 8321 8341 8361 8381 8401 8442 0
-9660 9681 0
-8042 9681 0
-8062 9681 0
-8082 9681 0
-8102 9681 0
-8122 9681 0
-8142 9681 0
-8162 9681 0
-8182 9681 0
-8202 9681 0
-8222 9681 0
-8242 9681 0
-8262 9681 0
-8282 9681 0
-8302 9681 0
-8322 9681 0
-8342 9681 0
-8362 9681 0
-8382 9681 0
-8402 9681 0
-8422 9681 0
-9681 9660 8042 8062 8082 8102 8122 8142 8162 8182 8202 8222 8242 8262 8282 8302 8322 8342 8362 8382 8402 8422 0
-9661 9682 0
-8463 9682 0
-8483 9682 0
-8503 9682 0
-8523 9682 0
-8543 9682 0
-8563 9682 0
-8583 9682 0
-8603 9682 0
-8623 9682 0
-8643 9682 0
-8663 9682 0
-8683 9682 0
-8703 9682 0
-8723 9682 0
-8743 9682 0
-8763 9682 0
-8783 9682 0
-8803 9682 0
-8823 9682 0
-8843 9682 0
-9682 9661 8463 8483 8503 8523 8543 8563 8583 8603 8623 8643 8663 8683 8703 8723 8743 8763 8783 8803 8823 8843 0
-9662 9683 0
-8443 9683 0
-8484 9683 0
-8504 9683 0
-8524 9683 0
-8544 9683 0
-8564 9683 0
-8584 9683 0
-8604 9683 0
-8624 9683 0
-8644 9683 0
-8664 9683 0
-8684 9683 0
-8704 9683 0
-8724 9683 0
-8744 9683 0
-8764 9683 0
-8784 9683 0
-8804 9683 0
-8824 9683 0
-8844 9683 0
-9683 9662 8443 8484 8504 8524 8544 8564 8584 8604 8624 8644 8664 8684 8704 8724 8744 8764 8784 8804 8824 8844 0
-9663 9684 0
-8444 9684 0
-8464 9684 0
-8505 9684 0
-8525 9684 0
-8545 9684 0
-8565 9684 0
-8585 9684 0
-8605 9684 0
-8625 9684 0
-8645 9684 0
-8665 9684 0
-8685 9684 0
-8705 9684 0
-8725 9684 0
-8745 9684 0
-8765 9684 0
-8785 9684 0
-8805 9684 0
-8825 9684 0
-8845 9684 0
-9684 9663 8444 8464 8505 8525 8545 8565 8585 8605 8625 8645 8665 8685 8705 8725 8745 8765 8785 8805 8825 8845 0
-9664 9685 0
-8445 9685 0
-8465 9685 0
-8485 9685 0
-8526 9685 0
-8546 9685 0
-8566 9685 0
-8586 9685 0
-8606 9685 0
-8626 9685 0
-8646 9685 0
-8666 9685 0
-8686 9685 0
-8706 9685 0
-8726 9685 0
-8746 9685 0
-8766 9685 0
-8786 9685 0
-8806 9685 0
-8826 9685 0
-8846 9685 0
-9685 9664 8445 8465 8485 8526 8546 8566 8586 8606 8626 8646 8666 8686 8706 8726 8746 8766 8786 8806 8826 8846 0
-9665 9686 0
-8446 9686 0
-8466 9686 0
-8486 9686 0
-8506 9686 0
-8547 9686 0
-8567 9686 0
-8587 9686 0
-8607 9686 0
-8627 9686 0
-8647 9686 0
-8667 9686 0
-8687 9686 0
-8707 9686 0
-8727 9686 0
-8747 9686 0
-8767 9686 0
-8787 9686 0
-8807 9686 0
-8827 9686 0
-8847 9686 0
-9686 9665 8446 8466 8486 8506 8547 8567 8587 8607 8627 8647 8667 8687 8707 8727 8747 8767 8787 8807 8827 8847 0
-9666 9687 0
-8447 9687 0
-8467 9687 0
-8487 9687 0
-8507 9687 0
-8527 9687 0
-8568 9687 0
-8588 9687 0
-8608 9687 0
-8628 9687 0
-8648 9687 0
-8668 9687 0
-8688 9687 0
-8708 9687 0
-8728 9687 0
-8748 9687 0
-8768 9687 0
-8788 9687 0
-8808 9687 0
-8828 9687 0
-8848 9687 0
-9687 9666 8447 8467 8487 8507 8527 8568 8588 8608 8628 8648 8668 8688 8708 8728 8748 8768 8788 8808 8828 8848 0
-9667 9688 0
-8448 9688 0
-8468 9688 0
-8488 9688 0
-8508 9688 0
-8528 9688 0
-8548 9688 0
-8589 9688 0
-8609 9688 0
-8629 9688 0
-8649 9688 0
-8669 9688 0
-8689 9688 0
-8709 9688 0
-8729 9688 0
-8749 9688 0
-8769 9688 0
-8789 9688 0
-8809 9688 0
-8829 9688 0
-8849 9688 0
-9688 9667 8448 8468 8488 8508 8528 8548 8589 8609 8629 8649 8669 8689 8709 8729 8749 8769 8789 8809 8829 8849 0
-9668 9689 0
-8449 9689 0
-8469 9689 0
-8489 9689 0
-8509 9689 0
-8529 9689 0
-8549 9689 0
-8569 9689 0
-8610 9689 0
-8630 9689 0
-8650 9689 0
-8670 9689 0
-8690 9689 0
-8710 9689 0
-8730 9689 0
-8750 9689 0
-8770 9689 0
-8790 9689 0
-8810 9689 0
-8830 9689 0
-8850 9689 0
-9689 9668 8449 8469 8489 8509 8529 8549 8569 8610 8630 8650 8670 8690 8710 8730 8750 8770 8790 8810 8830 8850 0
-9669 9690 0
-8450 9690 0
-8470 9690 0
-8490 9690 0
-8510 9690 0
-8530 9690 0
-8550 9690 0
-8570 9690 0
-8590 9690 0
-8631 9690 0
-8651 9690 0
-8671 9690 0
-8691 9690 0
-8711 9690 0
-8731 9690 0
-8751 9690 0
-8771 9690 0
-8791 9690 0
-8811 9690 0
-8831 9690 0
-8851 9690 0
-9690 9669 8450 8470 8490 8510 8530 8550 8570 8590 8631 8651 8671 8691 8711 8731 8751 8771 8791 8811 8831 8851 0
-9670 9691 0
-8451 9691 0
-8471 9691 0
-8491 9691 0
-8511 9691 0
-8531 9691 0
-8551 9691 0
-8571 9691 0
-8591 9691 0
-8611 9691 0
-8652 9691 0
-8672 9691 0
-8692 9691 0
-8712 9691 0
-8732 9691 0
-8752 9691 0
-8772 9691 0
-8792 9691 0
-8812 9691 0
-8832 9691 0
-8852 9691 0
-9691 9670 8451 8471 8491 8511 8531 8551 8571 8591 8611 8652 8672 8692 8712 8732 8752 8772 8792 8812 8832 8852 0
-9671 9692 0
-8452 9692 0
-8472 9692 0
-8492 9692 0
-8512 9692 0
-8532 9692 0
-8552 9692 0
-8572 9692 0
-8592 9692 0
-8612 9692 0
-8632 9692 0
-8673 9692 0
-8693 9692 0
-8713 9692 0
-8733 9692 0
-8753 9692 0
-8773 9692 0
-8793 9692 0
-8813 9692 0
-8833 9692 0
-8853 9692 0
-9692 9671 8452 8472 8492 8512 8532 8552 8572 8592 8612 8632 8673 8693 8713 8733 8753 8773 8793 8813 8833 8853 0
-9672 9693 0
-8453 9693 0
-8473 9693 0
-8493 9693 0
-8513 9693 0
-8533 9693 0
-8553 9693 0
-8573 9693 0
-8593 9693 0
-8613 9693 0
-8633 9693 0
-8653 9693 0
-8694 9693 0
-8714 9693 0
-8734 9693 0
-8754 9693 0
-8774 9693 0
-8794 9693 0
-8814 9693 0
-8834 9693 0
-8854 9693 0
-9693 9672 8453 8473 8493 8513 8533 8553 8573 8593 8613 8633 8653 8694 8714 8734 8754 8774 8794 8814 8834 8854 0
-9673 9694 0
-8454 9694 0
-8474 9694 0
-8494 9694 0
-8514 9694 0
-8534 9694 0
-8554 9694 0
-8574 9694 0
-8594 9694 0
-8614 9694 0
-8634 9694 0
-8654 9694 0
-8674 9694 0
-8715 9694 0
-8735 9694 0
-8755 9694 0
-8775 9694 0
-8795 9694 0
-8815 9694 0
-8835 9694 0
-8855 9694 0
-9694 9673 8454 8474 8494 8514 8534 8554 8574 8594 8614 8634 8654 8674 8715 8735 8755 8775 8795 8815 8835 8855 0
-9674 9695 0
-8455 9695 0
-8475 9695 0
-8495 9695 0
-8515 9695 0
-8535 9695 0
-8555 9695 0
-8575 9695 0
-8595 9695 0
-8615 9695 0
-8635 9695 0
-8655 9695 0
-8675 9695 0
-8695 9695 0
-8736 9695 0
-8756 9695 0
-8776 9695 0
-8796 9695 0
-8816 9695 0
-8836 9695 0
-8856 9695 0
-9695 9674 8455 8475 8495 8515 8535 8555 8575 8595 8615 8635 8655 8675 8695 8736 8756 8776 8796 8816 8836 8856 0
-9675 9696 0
-8456 9696 0
-8476 9696 0
-8496 9696 0
-8516 9696 0
-8536 9696 0
-8556 9696 0
-8576 9696 0
-8596 9696 0
-8616 9696 0
-8636 9696 0
-8656 9696 0
-8676 9696 0
-8696 9696 0
-8716 9696 0
-8757 9696 0
-8777 9696 0
-8797 9696 0
-8817 9696 0
-8837 9696 0
-8857 9696 0
-9696 9675 8456 8476 8496 8516 8536 8556 8576 8596 8616 8636 8656 8676 8696 8716 8757 8777 8797 8817 8837 8857 0
-9676 9697 0
-8457 9697 0
-8477 9697 0
-8497 9697 0
-8517 9697 0
-8537 9697 0
-8557 9697 0
-8577 9697 0
-8597 9697 0
-8617 9697 0
-8637 9697 0
-8657 9697 0
-8677 9697 0
-8697 9697 0
-8717 9697 0
-8737 9697 0
-8778 9697 0
-8798 9697 0
-8818 9697 0
-8838 9697 0
-8858 9697 0
-9697 9676 8457 8477 8497 8517 8537 8557 8577 8597 8617 8637 8657 8677 8697 8717 8737 8778 8798 8818 8838 8858 0
-9677 9698 0
-8458 9698 0
-8478 9698 0
-8498 9698 0
-8518 9698 0
-8538 9698 0
-8558 9698 0
-8578 9698 0
-8598 9698 0
-8618 9698 0
-8638 9698 0
-8658 9698 0
-8678 9698 0
-8698 9698 0
-8718 9698 0
-8738 9698 0
-8758 9698 0
-8799 9698 0
-8819 9698 0
-8839 9698 0
-8859 9698 0
-9698 9677 8458 8478 8498 8518 8538 8558 8578 8598 8618 8638 8658 8678 8698 8718 8738 8758 8799 8819 8839 8859 0
-9678 9699 0
-8459 9699 0
-8479 9699 0
-8499 9699 0
-8519 9699 0
-8539 9699 0
-8559 9699 0
-8579 9699 0
-8599 9699 0
-8619 9699 0
-8639 9699 0
-8659 9699 0
-8679 9699 0
-8699 9699 0
-8719 9699 0
-8739 9699 0
-8759 9699 0
-8779 9699 0
-8820 9699 0
-8840 9699 0
-8860 9699 0
-9699 9678 8459 8479 8499 8519 8539 8559 8579 8599 8619 8639 8659 8679 8699 8719 8739 8759 8779 8820 8840 8860 0
-9679 9700 0
-8460 9700 0
-8480 9700 0
-8500 9700 0
-8520 9700 0
-8540 9700 0
-8560 9700 0
-8580 9700 0
-8600 9700 0
-8620 9700 0
-8640 9700 0
-8660 9700 0
-8680 9700 0
-8700 9700 0
-8720 9700 0
-8740 9700 0
-8760 9700 0
-8780 9700 0
-8800 9700 0
-8841 9700 0
-8861 9700 0
-9700 9679 8460 8480 8500 8520 8540 8560 8580 8600 8620 8640 8660 8680 8700 8720 8740 8760 8780 8800 8841 8861 0
-9680 9701 0
-8461 9701 0
-8481 9701 0
-8501 9701 0
-8521 9701 0
-8541 9701 0
-8561 9701 0
-8581 9701 0
-8601 9701 0
-8621 9701 0
-8641 9701 0
-8661 9701 0
-8681 9701 0
-8701 9701 0
-8721 9701 0
-8741 9701 0
-8761 9701 0
-8781 9701 0
-8801 9701 0
-8821 9701 0
-8862 9701 0
-9701 9680 8461 8481 8501 8521 8541 8561 8581 8601 8621 8641 8661 8681 8701 8721 8741 8761 8781 8801 8821 8862 0
-9681 9702 0
-8462 9702 0
-8482 9702 0
-8502 9702 0
-8522 9702 0
-8542 9702 0
-8562 9702 0
-8582 9702 0
-8602 9702 0
-8622 9702 0
-8642 9702 0
-8662 9702 0
-8682 9702 0
-8702 9702 0
-8722 9702 0
-8742 9702 0
-8762 9702 0
-8782 9702 0
-8802 9702 0
-8822 9702 0
-8842 9702 0
-9702 9681 8462 8482 8502 8522 8542 8562 8582 8602 8622 8642 8662 8682 8702 8722 8742 8762 8782 8802 8822 8842 0
-9682 9703 0
-8883 9703 0
-8903 9703 0
-8923 9703 0
-8943 9703 0
-8963 9703 0
-8983 9703 0
-9003 9703 0
-9023 9703 0
-9043 9703 0
-9063 9703 0
-9083 9703 0
-9103 9703 0
-9123 9703 0
-9143 9703 0
-9163 9703 0
-9183 9703 0
-9203 9703 0
-9223 9703 0
-9243 9703 0
-9263 9703 0
-9703 9682 8883 8903 8923 8943 8963 8983 9003 9023 9043 9063 9083 9103 9123 9143 9163 9183 9203 9223 9243 9263 0
-9683 9704 0
-8863 9704 0
-8904 9704 0
-8924 9704 0
-8944 9704 0
-8964 9704 0
-8984 9704 0
-9004 9704 0
-9024 9704 0
-9044 9704 0
-9064 9704 0
-9084 9704 0
-9104 9704 0
-9124 9704 0
-9144 9704 0
-9164 9704 0
-9184 9704 0
-9204 9704 0
-9224 9704 0
-9244 9704 0
-9264 9704 0
-9704 9683 8863 8904 8924 8944 8964 8984 9004 9024 9044 9064 9084 9104 9124 9144 9164 9184 9204 9224 9244 9264 0
-9684 9705 0
-8864 9705 0
-8884 9705 0
-8925 9705 0
-8945 9705 0
-8965 9705 0
-8985 9705 0
-9005 9705 0
-9025 9705 0
-9045 9705 0
-9065 9705 0
-9085 9705 0
-9105 9705 0
-9125 9705 0
-9145 9705 0
-9165 9705 0
-9185 9705 0
-9205 9705 0
-9225 9705 0
-9245 9705 0
-9265 9705 0
-9705 9684 8864 8884 8925 8945 8965 8985 9005 9025 9045 9065 9085 9105 9125 9145 9165 9185 9205 9225 9245 9265 0
-9685 9706 0
-8865 9706 0
-8885 9706 0
-8905 9706 0
-8946 9706 0
-8966 9706 0
-8986 9706 0
-9006 9706 0
-9026 9706 0
-9046 9706 0
-9066 9706 0
-9086 9706 0
-9106 9706 0
-9126 9706 0
-9146 9706 0
-9166 9706 0
-9186 9706 0
-9206 9706 0
-9226 9706 0
-9246 9706 0
-9266 9706 0
-9706 9685 8865 8885 8905 8946 8966 8986 9006 9026 9046 9066 9086 9106 9126 9146 9166 9186 9206 9226 9246 9266 0
-9686 9707 0
-8866 9707 0
-8886 9707 0
-8906 9707 0
-8926 9707 0
-8967 9707 0
-8987 9707 0
-9007 9707 0
-9027 9707 0
-9047 9707 0
-9067 9707 0
-9087 9707 0
-9107 9707 0
-9127 9707 0
-9147 9707 0
-9167 9707 0
-9187 9707 0
-9207 9707 0
-9227 9707 0
-9247 9707 0
-9267 9707 0
-9707 9686 8866 8886 8906 8926 8967 8987 9007 9027 9047 9067 9087 9107 9127 9147 9167 9187 9207 9227 9247 9267 0
-9687 9708 0
-8867 9708 0
-8887 9708 0
-8907 9708 0
-8927 9708 0
-8947 9708 0
-8988 9708 0
-9008 9708 0
-9028 9708 0
-9048 9708 0
-9068 9708 0
-9088 9708 0
-9108 9708 0
-9128 9708 0
-9148 9708 0
-9168 9708 0
-9188 9708 0
-9208 9708 0
-9228 9708 0
-9248 9708 0
-9268 9708 0
-9708 9687 8867 8887 8907 8927 8947 8988 9008 9028 9048 9068 9088 9108 9128 9148 9168 9188 9208 9228 9248 9268 0
-9688 9709 0
-8868 9709 0
-8888 9709 0
-8908 9709 0
-8928 9709 0
-8948 9709 0
-8968 9709 0
-9009 9709 0
-9029 9709 0
-9049 9709 0
-9069 9709 0
-9089 9709 0
-9109 9709 0
-9129 9709 0
-9149 9709 0
-9169 9709 0
-9189 9709 0
-9209 9709 0
-9229 9709 0
-9249 9709 0
-9269 9709 0
-9709 9688 8868 8888 8908 8928 8948 8968 9009 9029 9049 9069 9089 9109 9129 9149 9169 9189 9209 9229 9249 9269 0
-9689 9710 0
-8869 9710 0
-8889 9710 0
-8909 9710 0
-8929 9710 0
-8949 9710 0
-8969 9710 0
-8989 9710 0
-9030 9710 0
-9050 9710 0
-9070 9710 0
-9090 9710 0
-9110 9710 0
-9130 9710 0
-9150 9710 0
-9170 9710 0
-9190 9710 0
-9210 9710 0
-9230 9710 0
-9250 9710 0
-9270 9710 0
-9710 9689 8869 8889 8909 8929 8949 8969 8989 9030 9050 9070 9090 9110 9130 9150 9170 9190 9210 9230 9250 9270 0
-9690 9711 0
-8870 9711 0
-8890 9711 0
-8910 9711 0
-8930 9711 0
-8950 9711 0
-8970 9711 0
-8990 9711 0
-9010 9711 0
-9051 9711 0
-9071 9711 0
-9091 9711 0
-9111 9711 0
-9131 9711 0
-9151 9711 0
-9171 9711 0
-9191 9711 0
-9211 9711 0
-9231 9711 0
-9251 9711 0
-9271 9711 0
-9711 9690 8870 8890 8910 8930 8950 8970 8990 9010 9051 9071 9091 9111 9131 9151 9171 9191 9211 9231 9251 9271 0
-9691 9712 0
-8871 9712 0
-8891 9712 0
-8911 9712 0
-8931 9712 0
-8951 9712 0
-8971 9712 0
-8991 9712 0
-9011 9712 0
-9031 9712 0
-9072 9712 0
-9092 9712 0
-9112 9712 0
-9132 9712 0
-9152 9712 0
-9172 9712 0
-9192 9712 0
-9212 9712 0
-9232 9712 0
-9252 9712 0
-9272 9712 0
-9712 9691 8871 8891 8911 8931 8951 8971 8991 9011 9031 9072 9092 9112 9132 9152 9172 9192 9212 9232 9252 9272 0
-9692 9713 0
-8872 9713 0
-8892 9713 0
-8912 9713 0
-8932 9713 0
-8952 9713 0
-8972 9713 0
-8992 9713 0
-9012 9713 0
-9032 9713 0
-9052 9713 0
-9093 9713 0
-9113 9713 0
-9133 9713 0
-9153 9713 0
-9173 9713 0
-9193 9713 0
-9213 9713 0
-9233 9713 0
-9253 9713 0
-9273 9713 0
-9713 9692 8872 8892 8912 8932 8952 8972 8992 9012 9032 9052 9093 9113 9133 9153 9173 9193 9213 9233 9253 9273 0
-9693 9714 0
-8873 9714 0
-8893 9714 0
-8913 9714 0
-8933 9714 0
-8953 9714 0
-8973 9714 0
-8993 9714 0
-9013 9714 0
-9033 9714 0
-9053 9714 0
-9073 9714 0
-9114 9714 0
-9134 9714 0
-9154 9714 0
-9174 9714 0
-9194 9714 0
-9214 9714 0
-9234 9714 0
-9254 9714 0
-9274 9714 0
-9714 9693 8873 8893 8913 8933 8953 8973 8993 9013 9033 9053 9073 9114 9134 9154 9174 9194 9214 9234 9254 9274 0
-9694 9715 0
-8874 9715 0
-8894 9715 0
-8914 9715 0
-8934 9715 0
-8954 9715 0
-8974 9715 0
-8994 9715 0
-9014 9715 0
-9034 9715 0
-9054 9715 0
-9074 9715 0
-9094 9715 0
-9135 9715 0
-9155 9715 0
-9175 9715 0
-9195 9715 0
-9215 9715 0
-9235 9715 0
-9255 9715 0
-9275 9715 0
-9715 9694 8874 8894 8914 8934 8954 8974 8994 9014 9034 9054 9074 9094 9135 9155 9175 9195 9215 9235 9255 9275 0
-9695 9716 0
-8875 9716 0
-8895 9716 0
-8915 9716 0
-8935 9716 0
-8955 9716 0
-8975 9716 0
-8995 9716 0
-9015 9716 0
-9035 9716 0
-9055 9716 0
-9075 9716 0
-9095 9716 0
-9115 9716 0
-9156 9716 0
-9176 9716 0
-9196 9716 0
-9216 9716 0
-9236 9716 0
-9256 9716 0
-9276 9716 0
-9716 9695 8875 8895 8915 8935 8955 8975 8995 9015 9035 9055 9075 9095 9115 9156 9176 9196 9216 9236 9256 9276 0
-9696 9717 0
-8876 9717 0
-8896 9717 0
-8916 9717 0
-8936 9717 0
-8956 9717 0
-8976 9717 0
-8996 9717 0
-9016 9717 0
-9036 9717 0
-9056 9717 0
-9076 9717 0
-9096 9717 0
-9116 9717 0
-9136 9717 0
-9177 9717 0
-9197 9717 0
-9217 9717 0
-9237 9717 0
-9257 9717 0
-9277 9717 0
-9717 9696 8876 8896 8916 8936 8956 8976 8996 9016 9036 9056 9076 9096 9116 9136 9177 9197 9217 9237 9257 9277 0
-9697 9718 0
-8877 9718 0
-8897 9718 0
-8917 9718 0
-8937 9718 0
-8957 9718 0
-8977 9718 0
-8997 9718 0
-9017 9718 0
-9037 9718 0
-9057 9718 0
-9077 9718 0
-9097 9718 0
-9117 9718 0
-9137 9718 0
-9157 9718 0
-9198 9718 0
-9218 9718 0
-9238 9718 0
-9258 9718 0
-9278 9718 0
-9718 9697 8877 8897 8917 8937 8957 8977 8997 9017 9037 9057 9077 9097 9117 9137 9157 9198 9218 9238 9258 9278 0
-9698 9719 0
-8878 9719 0
-8898 9719 0
-8918 9719 0
-8938 9719 0
-8958 9719 0
-8978 9719 0
-8998 9719 0
-9018 9719 0
-9038 9719 0
-9058 9719 0
-9078 9719 0
-9098 9719 0
-9118 9719 0
-9138 9719 0
-9158 9719 0
-9178 9719 0
-9219 9719 0
-9239 9719 0
-9259 9719 0
-9279 9719 0
-9719 9698 8878 8898 8918 8938 8958 8978 8998 9018 9038 9058 9078 9098 9118 9138 9158 9178 9219 9239 9259 9279 0
-9699 9720 0
-8879 9720 0
-8899 9720 0
-8919 9720 0
-8939 9720 0
-8959 9720 0
-8979 9720 0
-8999 9720 0
-9019 9720 0
-9039 9720 0
-9059 9720 0
-9079 9720 0
-9099 9720 0
-9119 9720 0
-9139 9720 0
-9159 9720 0
-9179 9720 0
-9199 9720 0
-9240 9720 0
-9260 9720 0
-9280 9720 0
-9720 9699 8879 8899 8919 8939 8959 8979 8999 9019 9039 9059 9079 9099 9119 9139 9159 9179 9199 9240 9260 9280 0
-9700 9721 0
-8880 9721 0
-8900 9721 0
-8920 9721 0
-8940 9721 0
-8960 9721 0
-8980 9721 0
-9000 9721 0
-9020 9721 0
-9040 9721 0
-9060 9721 0
-9080 9721 0
-9100 9721 0
-9120 9721 0
-9140 9721 0
-9160 9721 0
-9180 9721 0
-9200 9721 0
-9220 9721 0
-9261 9721 0
-9281 9721 0
-9721 9700 8880 8900 8920 8940 8960 8980 9000 9020 9040 9060 9080 9100 9120 9140 9160 9180 9200 9220 9261 9281 0
-9701 9722 0
-8881 9722 0
-8901 9722 0
-8921 9722 0
-8941 9722 0
-8961 9722 0
-8981 9722 0
-9001 9722 0
-9021 9722 0
-9041 9722 0
-9061 9722 0
-9081 9722 0
-9101 9722 0
-9121 9722 0
-9141 9722 0
-9161 9722 0
-9181 9722 0
-9201 9722 0
-9221 9722 0
-9241 9722 0
-9282 9722 0
-9722 9701 8881 8901 8921 8941 8961 8981 9001 9021 9041 9061 9081 9101 9121 9141 9161 9181 9201 9221 9241 9282 0
-9702 9723 0
-8882 9723 0
-8902 9723 0
-8922 9723 0
-8942 9723 0
-8962 9723 0
-8982 9723 0
-9002 9723 0
-9022 9723 0
-9042 9723 0
-9062 9723 0
-9082 9723 0
-9102 9723 0
-9122 9723 0
-9142 9723 0
-9162 9723 0
-9182 9723 0
-9202 9723 0
-9222 9723 0
-9242 9723 0
-9262 9723 0
-9723 9702 8882 8902 8922 8942 8962 8982 9002 9022 9042 9062 9082 9102 9122 9142 9162 9182 9202 9222 9242 9262 0
9682 0
9683 0
9684 0
9685 0
9686 0
9687 0
9688 0
9689 0
9690 0
9691 0
9692 0
9693 0
9694 0
9695 0
9696 0
9697 0
9698 0
9699 0
9700 0
9701 0
9702 0
