c n=21 tail-8 SAT calibration target -- MUTANT reach_reverse_drop (sol/sol_reply_85_math12.md P85-6, Ruling 214 step 4).
c Expected: SAT (paper-proof, see PAPER_ARGUMENT in gen_mutants_reverse_drop.py).
c Generated by search/sat/gen_mutants_reverse_drop.py -- do not hand-edit.
p cnf 9723 49708
1 2 3 4 5 6 7 8 9 10 11 12 13 14 15 16 17 18 19 20 211 0
-1 -2 0
-1 -3 0
-1 -4 0
-1 -5 0
-1 -6 0
-1 -7 0
-1 -8 0
-1 -9 0
-1 -10 0
-1 -11 0
-1 -12 0
-1 -13 0
-1 -14 0
-1 -15 0
-1 -16 0
-1 -17 0
-1 -18 0
-1 -19 0
-1 -20 0
-1 -211 0
-2 -3 0
-2 -4 0
-2 -5 0
-2 -6 0
-2 -7 0
-2 -8 0
-2 -9 0
-2 -10 0
-2 -11 0
-2 -12 0
-2 -13 0
-2 -14 0
-2 -15 0
-2 -16 0
-2 -17 0
-2 -18 0
-2 -19 0
-2 -20 0
-2 -211 0
-3 -4 0
-3 -5 0
-3 -6 0
-3 -7 0
-3 -8 0
-3 -9 0
-3 -10 0
-3 -11 0
-3 -12 0
-3 -13 0
-3 -14 0
-3 -15 0
-3 -16 0
-3 -17 0
-3 -18 0
-3 -19 0
-3 -20 0
-3 -211 0
-4 -5 0
-4 -6 0
-4 -7 0
-4 -8 0
-4 -9 0
-4 -10 0
-4 -11 0
-4 -12 0
-4 -13 0
-4 -14 0
-4 -15 0
-4 -16 0
-4 -17 0
-4 -18 0
-4 -19 0
-4 -20 0
-4 -211 0
-5 -6 0
-5 -7 0
-5 -8 0
-5 -9 0
-5 -10 0
-5 -11 0
-5 -12 0
-5 -13 0
-5 -14 0
-5 -15 0
-5 -16 0
-5 -17 0
-5 -18 0
-5 -19 0
-5 -20 0
-5 -211 0
-6 -7 0
-6 -8 0
-6 -9 0
-6 -10 0
-6 -11 0
-6 -12 0
-6 -13 0
-6 -14 0
-6 -15 0
-6 -16 0
-6 -17 0
-6 -18 0
-6 -19 0
-6 -20 0
-6 -211 0
-7 -8 0
-7 -9 0
-7 -10 0
-7 -11 0
-7 -12 0
-7 -13 0
-7 -14 0
-7 -15 0
-7 -16 0
-7 -17 0
-7 -18 0
-7 -19 0
-7 -20 0
-7 -211 0
-8 -9 0
-8 -10 0
-8 -11 0
-8 -12 0
-8 -13 0
-8 -14 0
-8 -15 0
-8 -16 0
-8 -17 0
-8 -18 0
-8 -19 0
-8 -20 0
-8 -211 0
-9 -10 0
-9 -11 0
-9 -12 0
-9 -13 0
-9 -14 0
-9 -15 0
-9 -16 0
-9 -17 0
-9 -18 0
-9 -19 0
-9 -20 0
-9 -211 0
-10 -11 0
-10 -12 0
-10 -13 0
-10 -14 0
-10 -15 0
-10 -16 0
-10 -17 0
-10 -18 0
-10 -19 0
-10 -20 0
-10 -211 0
-11 -12 0
-11 -13 0
-11 -14 0
-11 -15 0
-11 -16 0
-11 -17 0
-11 -18 0
-11 -19 0
-11 -20 0
-11 -211 0
-12 -13 0
-12 -14 0
-12 -15 0
-12 -16 0
-12 -17 0
-12 -18 0
-12 -19 0
-12 -20 0
-12 -211 0
-13 -14 0
-13 -15 0
-13 -16 0
-13 -17 0
-13 -18 0
-13 -19 0
-13 -20 0
-13 -211 0
-14 -15 0
-14 -16 0
-14 -17 0
-14 -18 0
-14 -19 0
-14 -20 0
-14 -211 0
-15 -16 0
-15 -17 0
-15 -18 0
-15 -19 0
-15 -20 0
-15 -211 0
-16 -17 0
-16 -18 0
-16 -19 0
-16 -20 0
-16 -211 0
-17 -18 0
-17 -19 0
-17 -20 0
-17 -211 0
-18 -19 0
-18 -20 0
-18 -211 0
-19 -20 0
-19 -211 0
-20 -211 0
1 21 22 23 24 25 26 27 28 29 30 31 32 33 34 35 36 37 38 39 212 0
-1 -21 0
-1 -22 0
-1 -23 0
-1 -24 0
-1 -25 0
-1 -26 0
-1 -27 0
-1 -28 0
-1 -29 0
-1 -30 0
-1 -31 0
-1 -32 0
-1 -33 0
-1 -34 0
-1 -35 0
-1 -36 0
-1 -37 0
-1 -38 0
-1 -39 0
-1 -212 0
-21 -22 0
-21 -23 0
-21 -24 0
-21 -25 0
-21 -26 0
-21 -27 0
-21 -28 0
-21 -29 0
-21 -30 0
-21 -31 0
-21 -32 0
-21 -33 0
-21 -34 0
-21 -35 0
-21 -36 0
-21 -37 0
-21 -38 0
-21 -39 0
-21 -212 0
-22 -23 0
-22 -24 0
-22 -25 0
-22 -26 0
-22 -27 0
-22 -28 0
-22 -29 0
-22 -30 0
-22 -31 0
-22 -32 0
-22 -33 0
-22 -34 0
-22 -35 0
-22 -36 0
-22 -37 0
-22 -38 0
-22 -39 0
-22 -212 0
-23 -24 0
-23 -25 0
-23 -26 0
-23 -27 0
-23 -28 0
-23 -29 0
-23 -30 0
-23 -31 0
-23 -32 0
-23 -33 0
-23 -34 0
-23 -35 0
-23 -36 0
-23 -37 0
-23 -38 0
-23 -39 0
-23 -212 0
-24 -25 0
-24 -26 0
-24 -27 0
-24 -28 0
-24 -29 0
-24 -30 0
-24 -31 0
-24 -32 0
-24 -33 0
-24 -34 0
-24 -35 0
-24 -36 0
-24 -37 0
-24 -38 0
-24 -39 0
-24 -212 0
-25 -26 0
-25 -27 0
-25 -28 0
-25 -29 0
-25 -30 0
-25 -31 0
-25 -32 0
-25 -33 0
-25 -34 0
-25 -35 0
-25 -36 0
-25 -37 0
-25 -38 0
-25 -39 0
-25 -212 0
-26 -27 0
-26 -28 0
-26 -29 0
-26 -30 0
-26 -31 0
-26 -32 0
-26 -33 0
-26 -34 0
-26 -35 0
-26 -36 0
-26 -37 0
-26 -38 0
-26 -39 0
-26 -212 0
-27 -28 0
-27 -29 0
-27 -30 0
-27 -31 0
-27 -32 0
-27 -33 0
-27 -34 0
-27 -35 0
-27 -36 0
-27 -37 0
-27 -38 0
-27 -39 0
-27 -212 0
-28 -29 0
-28 -30 0
-28 -31 0
-28 -32 0
-28 -33 0
-28 -34 0
-28 -35 0
-28 -36 0
-28 -37 0
-28 -38 0
-28 -39 0
-28 -212 0
-29 -30 0
-29 -31 0
-29 -32 0
-29 -33 0
-29 -34 0
-29 -35 0
-29 -36 0
-29 -37 0
-29 -38 0
-29 -39 0
-29 -212 0
-30 -31 0
-30 -32 0
-30 -33 0
-30 -34 0
-30 -35 0
-30 -36 0
-30 -37 0
-30 -38 0
-30 -39 0
-30 -212 0
-31 -32 0
-31 -33 0
-31 -34 0
-31 -35 0
-31 -36 0
-31 -37 0
-31 -38 0
-31 -39 0
-31 -212 0
-32 -33 0
-32 -34 0
-32 -35 0
-32 -36 0
-32 -37 0
-32 -38 0
-32 -39 0
-32 -212 0
-33 -34 0
-33 -35 0
-33 -36 0
-33 -37 0
-33 -38 0
-33 -39 0
-33 -212 0
-34 -35 0
-34 -36 0
-34 -37 0
-34 -38 0
-34 -39 0
-34 -212 0
-35 -36 0
-35 -37 0
-35 -38 0
-35 -39 0
-35 -212 0
-36 -37 0
-36 -38 0
-36 -39 0
-36 -212 0
-37 -38 0
-37 -39 0
-37 -212 0
-38 -39 0
-38 -212 0
-39 -212 0
2 21 40 41 42 43 44 45 46 47 48 49 50 51 52 53 54 55 56 57 213 0
-2 -21 0
-2 -40 0
-2 -41 0
-2 -42 0
-2 -43 0
-2 -44 0
-2 -45 0
-2 -46 0
-2 -47 0
-2 -48 0
-2 -49 0
-2 -50 0
-2 -51 0
-2 -52 0
-2 -53 0
-2 -54 0
-2 -55 0
-2 -56 0
-2 -57 0
-2 -213 0
-21 -40 0
-21 -41 0
-21 -42 0
-21 -43 0
-21 -44 0
-21 -45 0
-21 -46 0
-21 -47 0
-21 -48 0
-21 -49 0
-21 -50 0
-21 -51 0
-21 -52 0
-21 -53 0
-21 -54 0
-21 -55 0
-21 -56 0
-21 -57 0
-21 -213 0
-40 -41 0
-40 -42 0
-40 -43 0
-40 -44 0
-40 -45 0
-40 -46 0
-40 -47 0
-40 -48 0
-40 -49 0
-40 -50 0
-40 -51 0
-40 -52 0
-40 -53 0
-40 -54 0
-40 -55 0
-40 -56 0
-40 -57 0
-40 -213 0
-41 -42 0
-41 -43 0
-41 -44 0
-41 -45 0
-41 -46 0
-41 -47 0
-41 -48 0
-41 -49 0
-41 -50 0
-41 -51 0
-41 -52 0
-41 -53 0
-41 -54 0
-41 -55 0
-41 -56 0
-41 -57 0
-41 -213 0
-42 -43 0
-42 -44 0
-42 -45 0
-42 -46 0
-42 -47 0
-42 -48 0
-42 -49 0
-42 -50 0
-42 -51 0
-42 -52 0
-42 -53 0
-42 -54 0
-42 -55 0
-42 -56 0
-42 -57 0
-42 -213 0
-43 -44 0
-43 -45 0
-43 -46 0
-43 -47 0
-43 -48 0
-43 -49 0
-43 -50 0
-43 -51 0
-43 -52 0
-43 -53 0
-43 -54 0
-43 -55 0
-43 -56 0
-43 -57 0
-43 -213 0
-44 -45 0
-44 -46 0
-44 -47 0
-44 -48 0
-44 -49 0
-44 -50 0
-44 -51 0
-44 -52 0
-44 -53 0
-44 -54 0
-44 -55 0
-44 -56 0
-44 -57 0
-44 -213 0
-45 -46 0
-45 -47 0
-45 -48 0
-45 -49 0
-45 -50 0
-45 -51 0
-45 -52 0
-45 -53 0
-45 -54 0
-45 -55 0
-45 -56 0
-45 -57 0
-45 -213 0
-46 -47 0
-46 -48 0
-46 -49 0
-46 -50 0
-46 -51 0
-46 -52 0
-46 -53 0
-46 -54 0
-46 -55 0
-46 -56 0
-46 -57 0
-46 -213 0
-47 -48 0
-47 -49 0
-47 -50 0
-47 -51 0
-47 -52 0
-47 -53 0
-47 -54 0
-47 -55 0
-47 -56 0
-47 -57 0
-47 -213 0
-48 -49 0
-48 -50 0
-48 -51 0
-48 -52 0
-48 -53 0
-48 -54 0
-48 -55 0
-48 -56 0
-48 -57 0
-48 -213 0
-49 -50 0
-49 -51 0
-49 -52 0
-49 -53 0
-49 -54 0
-49 -55 0
-49 -56 0
-49 -57 0
-49 -213 0
-50 -51 0
-50 -52 0
-50 -53 0
-50 -54 0
-50 -55 0
-50 -56 0
-50 -57 0
-50 -213 0
-51 -52 0
-51 -53 0
-51 -54 0
-51 -55 0
-51 -56 0
-51 -57 0
-51 -213 0
-52 -53 0
-52 -54 0
-52 -55 0
-52 -56 0
-52 -57 0
-52 -213 0
-53 -54 0
-53 -55 0
-53 -56 0
-53 -57 0
-53 -213 0
-54 -55 0
-54 -56 0
-54 -57 0
-54 -213 0
-55 -56 0
-55 -57 0
-55 -213 0
-56 -57 0
-56 -213 0
-57 -213 0
3 22 40 58 59 60 61 62 63 64 65 66 67 68 69 70 71 72 73 74 214 0
-3 -22 0
-3 -40 0
-3 -58 0
-3 -59 0
-3 -60 0
-3 -61 0
-3 -62 0
-3 -63 0
-3 -64 0
-3 -65 0
-3 -66 0
-3 -67 0
-3 -68 0
-3 -69 0
-3 -70 0
-3 -71 0
-3 -72 0
-3 -73 0
-3 -74 0
-3 -214 0
-22 -40 0
-22 -58 0
-22 -59 0
-22 -60 0
-22 -61 0
-22 -62 0
-22 -63 0
-22 -64 0
-22 -65 0
-22 -66 0
-22 -67 0
-22 -68 0
-22 -69 0
-22 -70 0
-22 -71 0
-22 -72 0
-22 -73 0
-22 -74 0
-22 -214 0
-40 -58 0
-40 -59 0
-40 -60 0
-40 -61 0
-40 -62 0
-40 -63 0
-40 -64 0
-40 -65 0
-40 -66 0
-40 -67 0
-40 -68 0
-40 -69 0
-40 -70 0
-40 -71 0
-40 -72 0
-40 -73 0
-40 -74 0
-40 -214 0
-58 -59 0
-58 -60 0
-58 -61 0
-58 -62 0
-58 -63 0
-58 -64 0
-58 -65 0
-58 -66 0
-58 -67 0
-58 -68 0
-58 -69 0
-58 -70 0
-58 -71 0
-58 -72 0
-58 -73 0
-58 -74 0
-58 -214 0
-59 -60 0
-59 -61 0
-59 -62 0
-59 -63 0
-59 -64 0
-59 -65 0
-59 -66 0
-59 -67 0
-59 -68 0
-59 -69 0
-59 -70 0
-59 -71 0
-59 -72 0
-59 -73 0
-59 -74 0
-59 -214 0
-60 -61 0
-60 -62 0
-60 -63 0
-60 -64 0
-60 -65 0
-60 -66 0
-60 -67 0
-60 -68 0
-60 -69 0
-60 -70 0
-60 -71 0
-60 -72 0
-60 -73 0
-60 -74 0
-60 -214 0
-61 -62 0
-61 -63 0
-61 -64 0
-61 -65 0
-61 -66 0
-61 -67 0
-61 -68 0
-61 -69 0
-61 -70 0
-61 -71 0
-61 -72 0
-61 -73 0
-61 -74 0
-61 -214 0
-62 -63 0
-62 -64 0
-62 -65 0
-62 -66 0
-62 -67 0
-62 -68 0
-62 -69 0
-62 -70 0
-62 -71 0
-62 -72 0
-62 -73 0
-62 -74 0
-62 -214 0
-63 -64 0
-63 -65 0
-63 -66 0
-63 -67 0
-63 -68 0
-63 -69 0
-63 -70 0
-63 -71 0
-63 -72 0
-63 -73 0
-63 -74 0
-63 -214 0
-64 -65 0
-64 -66 0
-64 -67 0
-64 -68 0
-64 -69 0
-64 -70 0
-64 -71 0
-64 -72 0
-64 -73 0
-64 -74 0
-64 -214 0
-65 -66 0
-65 -67 0
-65 -68 0
-65 -69 0
-65 -70 0
-65 -71 0
-65 -72 0
-65 -73 0
-65 -74 0
-65 -214 0
-66 -67 0
-66 -68 0
-66 -69 0
-66 -70 0
-66 -71 0
-66 -72 0
-66 -73 0
-66 -74 0
-66 -214 0
-67 -68 0
-67 -69 0
-67 -70 0
-67 -71 0
-67 -72 0
-67 -73 0
-67 -74 0
-67 -214 0
-68 -69 0
-68 -70 0
-68 -71 0
-68 -72 0
-68 -73 0
-68 -74 0
-68 -214 0
-69 -70 0
-69 -71 0
-69 -72 0
-69 -73 0
-69 -74 0
-69 -214 0
-70 -71 0
-70 -72 0
-70 -73 0
-70 -74 0
-70 -214 0
-71 -72 0
-71 -73 0
-71 -74 0
-71 -214 0
-72 -73 0
-72 -74 0
-72 -214 0
-73 -74 0
-73 -214 0
-74 -214 0
4 23 41 58 75 76 77 78 79 80 81 82 83 84 85 86 87 88 89 90 215 0
-4 -23 0
-4 -41 0
-4 -58 0
-4 -75 0
-4 -76 0
-4 -77 0
-4 -78 0
-4 -79 0
-4 -80 0
-4 -81 0
-4 -82 0
-4 -83 0
-4 -84 0
-4 -85 0
-4 -86 0
-4 -87 0
-4 -88 0
-4 -89 0
-4 -90 0
-4 -215 0
-23 -41 0
-23 -58 0
-23 -75 0
-23 -76 0
-23 -77 0
-23 -78 0
-23 -79 0
-23 -80 0
-23 -81 0
-23 -82 0
-23 -83 0
-23 -84 0
-23 -85 0
-23 -86 0
-23 -87 0
-23 -88 0
-23 -89 0
-23 -90 0
-23 -215 0
-41 -58 0
-41 -75 0
-41 -76 0
-41 -77 0
-41 -78 0
-41 -79 0
-41 -80 0
-41 -81 0
-41 -82 0
-41 -83 0
-41 -84 0
-41 -85 0
-41 -86 0
-41 -87 0
-41 -88 0
-41 -89 0
-41 -90 0
-41 -215 0
-58 -75 0
-58 -76 0
-58 -77 0
-58 -78 0
-58 -79 0
-58 -80 0
-58 -81 0
-58 -82 0
-58 -83 0
-58 -84 0
-58 -85 0
-58 -86 0
-58 -87 0
-58 -88 0
-58 -89 0
-58 -90 0
-58 -215 0
-75 -76 0
-75 -77 0
-75 -78 0
-75 -79 0
-75 -80 0
-75 -81 0
-75 -82 0
-75 -83 0
-75 -84 0
-75 -85 0
-75 -86 0
-75 -87 0
-75 -88 0
-75 -89 0
-75 -90 0
-75 -215 0
-76 -77 0
-76 -78 0
-76 -79 0
-76 -80 0
-76 -81 0
-76 -82 0
-76 -83 0
-76 -84 0
-76 -85 0
-76 -86 0
-76 -87 0
-76 -88 0
-76 -89 0
-76 -90 0
-76 -215 0
-77 -78 0
-77 -79 0
-77 -80 0
-77 -81 0
-77 -82 0
-77 -83 0
-77 -84 0
-77 -85 0
-77 -86 0
-77 -87 0
-77 -88 0
-77 -89 0
-77 -90 0
-77 -215 0
-78 -79 0
-78 -80 0
-78 -81 0
-78 -82 0
-78 -83 0
-78 -84 0
-78 -85 0
-78 -86 0
-78 -87 0
-78 -88 0
-78 -89 0
-78 -90 0
-78 -215 0
-79 -80 0
-79 -81 0
-79 -82 0
-79 -83 0
-79 -84 0
-79 -85 0
-79 -86 0
-79 -87 0
-79 -88 0
-79 -89 0
-79 -90 0
-79 -215 0
-80 -81 0
-80 -82 0
-80 -83 0
-80 -84 0
-80 -85 0
-80 -86 0
-80 -87 0
-80 -88 0
-80 -89 0
-80 -90 0
-80 -215 0
-81 -82 0
-81 -83 0
-81 -84 0
-81 -85 0
-81 -86 0
-81 -87 0
-81 -88 0
-81 -89 0
-81 -90 0
-81 -215 0
-82 -83 0
-82 -84 0
-82 -85 0
-82 -86 0
-82 -87 0
-82 -88 0
-82 -89 0
-82 -90 0
-82 -215 0
-83 -84 0
-83 -85 0
-83 -86 0
-83 -87 0
-83 -88 0
-83 -89 0
-83 -90 0
-83 -215 0
-84 -85 0
-84 -86 0
-84 -87 0
-84 -88 0
-84 -89 0
-84 -90 0
-84 -215 0
-85 -86 0
-85 -87 0
-85 -88 0
-85 -89 0
-85 -90 0
-85 -215 0
-86 -87 0
-86 -88 0
-86 -89 0
-86 -90 0
-86 -215 0
-87 -88 0
-87 -89 0
-87 -90 0
-87 -215 0
-88 -89 0
-88 -90 0
-88 -215 0
-89 -90 0
-89 -215 0
-90 -215 0
5 24 42 59 75 91 92 93 94 95 96 97 98 99 100 101 102 103 104 105 216 0
-5 -24 0
-5 -42 0
-5 -59 0
-5 -75 0
-5 -91 0
-5 -92 0
-5 -93 0
-5 -94 0
-5 -95 0
-5 -96 0
-5 -97 0
-5 -98 0
-5 -99 0
-5 -100 0
-5 -101 0
-5 -102 0
-5 -103 0
-5 -104 0
-5 -105 0
-5 -216 0
-24 -42 0
-24 -59 0
-24 -75 0
-24 -91 0
-24 -92 0
-24 -93 0
-24 -94 0
-24 -95 0
-24 -96 0
-24 -97 0
-24 -98 0
-24 -99 0
-24 -100 0
-24 -101 0
-24 -102 0
-24 -103 0
-24 -104 0
-24 -105 0
-24 -216 0
-42 -59 0
-42 -75 0
-42 -91 0
-42 -92 0
-42 -93 0
-42 -94 0
-42 -95 0
-42 -96 0
-42 -97 0
-42 -98 0
-42 -99 0
-42 -100 0
-42 -101 0
-42 -102 0
-42 -103 0
-42 -104 0
-42 -105 0
-42 -216 0
-59 -75 0
-59 -91 0
-59 -92 0
-59 -93 0
-59 -94 0
-59 -95 0
-59 -96 0
-59 -97 0
-59 -98 0
-59 -99 0
-59 -100 0
-59 -101 0
-59 -102 0
-59 -103 0
-59 -104 0
-59 -105 0
-59 -216 0
-75 -91 0
-75 -92 0
-75 -93 0
-75 -94 0
-75 -95 0
-75 -96 0
-75 -97 0
-75 -98 0
-75 -99 0
-75 -100 0
-75 -101 0
-75 -102 0
-75 -103 0
-75 -104 0
-75 -105 0
-75 -216 0
-91 -92 0
-91 -93 0
-91 -94 0
-91 -95 0
-91 -96 0
-91 -97 0
-91 -98 0
-91 -99 0
-91 -100 0
-91 -101 0
-91 -102 0
-91 -103 0
-91 -104 0
-91 -105 0
-91 -216 0
-92 -93 0
-92 -94 0
-92 -95 0
-92 -96 0
-92 -97 0
-92 -98 0
-92 -99 0
-92 -100 0
-92 -101 0
-92 -102 0
-92 -103 0
-92 -104 0
-92 -105 0
-92 -216 0
-93 -94 0
-93 -95 0
-93 -96 0
-93 -97 0
-93 -98 0
-93 -99 0
-93 -100 0
-93 -101 0
-93 -102 0
-93 -103 0
-93 -104 0
-93 -105 0
-93 -216 0
-94 -95 0
-94 -96 0
-94 -97 0
-94 -98 0
-94 -99 0
-94 -100 0
-94 -101 0
-94 -102 0
-94 -103 0
-94 -104 0
-94 -105 0
-94 -216 0
-95 -96 0
-95 -97 0
-95 -98 0
-95 -99 0
-95 -100 0
-95 -101 0
-95 -102 0
-95 -103 0
-95 -104 0
-95 -105 0
-95 -216 0
-96 -97 0
-96 -98 0
-96 -99 0
-96 -100 0
-96 -101 0
-96 -102 0
-96 -103 0
-96 -104 0
-96 -105 0
-96 -216 0
-97 -98 0
-97 -99 0
-97 -100 0
-97 -101 0
-97 -102 0
-97 -103 0
-97 -104 0
-97 -105 0
-97 -216 0
-98 -99 0
-98 -100 0
-98 -101 0
-98 -102 0
-98 -103 0
-98 -104 0
-98 -105 0
-98 -216 0
-99 -100 0
-99 -101 0
-99 -102 0
-99 -103 0
-99 -104 0
-99 -105 0
-99 -216 0
-100 -101 0
-100 -102 0
-100 -103 0
-100 -104 0
-100 -105 0
-100 -216 0
-101 -102 0
-101 -103 0
-101 -104 0
-101 -105 0
-101 -216 0
-102 -103 0
-102 -104 0
-102 -105 0
-102 -216 0
-103 -104 0
-103 -105 0
-103 -216 0
-104 -105 0
-104 -216 0
-105 -216 0
6 25 43 60 76 91 106 107 108 109 110 111 112 113 114 115 116 117 118 119 217 0
-6 -25 0
-6 -43 0
-6 -60 0
-6 -76 0
-6 -91 0
-6 -106 0
-6 -107 0
-6 -108 0
-6 -109 0
-6 -110 0
-6 -111 0
-6 -112 0
-6 -113 0
-6 -114 0
-6 -115 0
-6 -116 0
-6 -117 0
-6 -118 0
-6 -119 0
-6 -217 0
-25 -43 0
-25 -60 0
-25 -76 0
-25 -91 0
-25 -106 0
-25 -107 0
-25 -108 0
-25 -109 0
-25 -110 0
-25 -111 0
-25 -112 0
-25 -113 0
-25 -114 0
-25 -115 0
-25 -116 0
-25 -117 0
-25 -118 0
-25 -119 0
-25 -217 0
-43 -60 0
-43 -76 0
-43 -91 0
-43 -106 0
-43 -107 0
-43 -108 0
-43 -109 0
-43 -110 0
-43 -111 0
-43 -112 0
-43 -113 0
-43 -114 0
-43 -115 0
-43 -116 0
-43 -117 0
-43 -118 0
-43 -119 0
-43 -217 0
-60 -76 0
-60 -91 0
-60 -106 0
-60 -107 0
-60 -108 0
-60 -109 0
-60 -110 0
-60 -111 0
-60 -112 0
-60 -113 0
-60 -114 0
-60 -115 0
-60 -116 0
-60 -117 0
-60 -118 0
-60 -119 0
-60 -217 0
-76 -91 0
-76 -106 0
-76 -107 0
-76 -108 0
-76 -109 0
-76 -110 0
-76 -111 0
-76 -112 0
-76 -113 0
-76 -114 0
-76 -115 0
-76 -116 0
-76 -117 0
-76 -118 0
-76 -119 0
-76 -217 0
-91 -106 0
-91 -107 0
-91 -108 0
-91 -109 0
-91 -110 0
-91 -111 0
-91 -112 0
-91 -113 0
-91 -114 0
-91 -115 0
-91 -116 0
-91 -117 0
-91 -118 0
-91 -119 0
-91 -217 0
-106 -107 0
-106 -108 0
-106 -109 0
-106 -110 0
-106 -111 0
-106 -112 0
-106 -113 0
-106 -114 0
-106 -115 0
-106 -116 0
-106 -117 0
-106 -118 0
-106 -119 0
-106 -217 0
-107 -108 0
-107 -109 0
-107 -110 0
-107 -111 0
-107 -112 0
-107 -113 0
-107 -114 0
-107 -115 0
-107 -116 0
-107 -117 0
-107 -118 0
-107 -119 0
-107 -217 0
-108 -109 0
-108 -110 0
-108 -111 0
-108 -112 0
-108 -113 0
-108 -114 0
-108 -115 0
-108 -116 0
-108 -117 0
-108 -118 0
-108 -119 0
-108 -217 0
-109 -110 0
-109 -111 0
-109 -112 0
-109 -113 0
-109 -114 0
-109 -115 0
-109 -116 0
-109 -117 0
-109 -118 0
-109 -119 0
-109 -217 0
-110 -111 0
-110 -112 0
-110 -113 0
-110 -114 0
-110 -115 0
-110 -116 0
-110 -117 0
-110 -118 0
-110 -119 0
-110 -217 0
-111 -112 0
-111 -113 0
-111 -114 0
-111 -115 0
-111 -116 0
-111 -117 0
-111 -118 0
-111 -119 0
-111 -217 0
-112 -113 0
-112 -114 0
-112 -115 0
-112 -116 0
-112 -117 0
-112 -118 0
-112 -119 0
-112 -217 0
-113 -114 0
-113 -115 0
-113 -116 0
-113 -117 0
-113 -118 0
-113 -119 0
-113 -217 0
-114 -115 0
-114 -116 0
-114 -117 0
-114 -118 0
-114 -119 0
-114 -217 0
-115 -116 0
-115 -117 0
-115 -118 0
-115 -119 0
-115 -217 0
-116 -117 0
-116 -118 0
-116 -119 0
-116 -217 0
-117 -118 0
-117 -119 0
-117 -217 0
-118 -119 0
-118 -217 0
-119 -217 0
7 26 44 61 77 92 106 120 121 122 123 124 125 126 127 128 129 130 131 132 218 0
-7 -26 0
-7 -44 0
-7 -61 0
-7 -77 0
-7 -92 0
-7 -106 0
-7 -120 0
-7 -121 0
-7 -122 0
-7 -123 0
-7 -124 0
-7 -125 0
-7 -126 0
-7 -127 0
-7 -128 0
-7 -129 0
-7 -130 0
-7 -131 0
-7 -132 0
-7 -218 0
-26 -44 0
-26 -61 0
-26 -77 0
-26 -92 0
-26 -106 0
-26 -120 0
-26 -121 0
-26 -122 0
-26 -123 0
-26 -124 0
-26 -125 0
-26 -126 0
-26 -127 0
-26 -128 0
-26 -129 0
-26 -130 0
-26 -131 0
-26 -132 0
-26 -218 0
-44 -61 0
-44 -77 0
-44 -92 0
-44 -106 0
-44 -120 0
-44 -121 0
-44 -122 0
-44 -123 0
-44 -124 0
-44 -125 0
-44 -126 0
-44 -127 0
-44 -128 0
-44 -129 0
-44 -130 0
-44 -131 0
-44 -132 0
-44 -218 0
-61 -77 0
-61 -92 0
-61 -106 0
-61 -120 0
-61 -121 0
-61 -122 0
-61 -123 0
-61 -124 0
-61 -125 0
-61 -126 0
-61 -127 0
-61 -128 0
-61 -129 0
-61 -130 0
-61 -131 0
-61 -132 0
-61 -218 0
-77 -92 0
-77 -106 0
-77 -120 0
-77 -121 0
-77 -122 0
-77 -123 0
-77 -124 0
-77 -125 0
-77 -126 0
-77 -127 0
-77 -128 0
-77 -129 0
-77 -130 0
-77 -131 0
-77 -132 0
-77 -218 0
-92 -106 0
-92 -120 0
-92 -121 0
-92 -122 0
-92 -123 0
-92 -124 0
-92 -125 0
-92 -126 0
-92 -127 0
-92 -128 0
-92 -129 0
-92 -130 0
-92 -131 0
-92 -132 0
-92 -218 0
-106 -120 0
-106 -121 0
-106 -122 0
-106 -123 0
-106 -124 0
-106 -125 0
-106 -126 0
-106 -127 0
-106 -128 0
-106 -129 0
-106 -130 0
-106 -131 0
-106 -132 0
-106 -218 0
-120 -121 0
-120 -122 0
-120 -123 0
-120 -124 0
-120 -125 0
-120 -126 0
-120 -127 0
-120 -128 0
-120 -129 0
-120 -130 0
-120 -131 0
-120 -132 0
-120 -218 0
-121 -122 0
-121 -123 0
-121 -124 0
-121 -125 0
-121 -126 0
-121 -127 0
-121 -128 0
-121 -129 0
-121 -130 0
-121 -131 0
-121 -132 0
-121 -218 0
-122 -123 0
-122 -124 0
-122 -125 0
-122 -126 0
-122 -127 0
-122 -128 0
-122 -129 0
-122 -130 0
-122 -131 0
-122 -132 0
-122 -218 0
-123 -124 0
-123 -125 0
-123 -126 0
-123 -127 0
-123 -128 0
-123 -129 0
-123 -130 0
-123 -131 0
-123 -132 0
-123 -218 0
-124 -125 0
-124 -126 0
-124 -127 0
-124 -128 0
-124 -129 0
-124 -130 0
-124 -131 0
-124 -132 0
-124 -218 0
-125 -126 0
-125 -127 0
-125 -128 0
-125 -129 0
-125 -130 0
-125 -131 0
-125 -132 0
-125 -218 0
-126 -127 0
-126 -128 0
-126 -129 0
-126 -130 0
-126 -131 0
-126 -132 0
-126 -218 0
-127 -128 0
-127 -129 0
-127 -130 0
-127 -131 0
-127 -132 0
-127 -218 0
-128 -129 0
-128 -130 0
-128 -131 0
-128 -132 0
-128 -218 0
-129 -130 0
-129 -131 0
-129 -132 0
-129 -218 0
-130 -131 0
-130 -132 0
-130 -218 0
-131 -132 0
-131 -218 0
-132 -218 0
8 27 45 62 78 93 107 120 133 134 135 136 137 138 139 140 141 142 143 144 219 0
-8 -27 0
-8 -45 0
-8 -62 0
-8 -78 0
-8 -93 0
-8 -107 0
-8 -120 0
-8 -133 0
-8 -134 0
-8 -135 0
-8 -136 0
-8 -137 0
-8 -138 0
-8 -139 0
-8 -140 0
-8 -141 0
-8 -142 0
-8 -143 0
-8 -144 0
-8 -219 0
-27 -45 0
-27 -62 0
-27 -78 0
-27 -93 0
-27 -107 0
-27 -120 0
-27 -133 0
-27 -134 0
-27 -135 0
-27 -136 0
-27 -137 0
-27 -138 0
-27 -139 0
-27 -140 0
-27 -141 0
-27 -142 0
-27 -143 0
-27 -144 0
-27 -219 0
-45 -62 0
-45 -78 0
-45 -93 0
-45 -107 0
-45 -120 0
-45 -133 0
-45 -134 0
-45 -135 0
-45 -136 0
-45 -137 0
-45 -138 0
-45 -139 0
-45 -140 0
-45 -141 0
-45 -142 0
-45 -143 0
-45 -144 0
-45 -219 0
-62 -78 0
-62 -93 0
-62 -107 0
-62 -120 0
-62 -133 0
-62 -134 0
-62 -135 0
-62 -136 0
-62 -137 0
-62 -138 0
-62 -139 0
-62 -140 0
-62 -141 0
-62 -142 0
-62 -143 0
-62 -144 0
-62 -219 0
-78 -93 0
-78 -107 0
-78 -120 0
-78 -133 0
-78 -134 0
-78 -135 0
-78 -136 0
-78 -137 0
-78 -138 0
-78 -139 0
-78 -140 0
-78 -141 0
-78 -142 0
-78 -143 0
-78 -144 0
-78 -219 0
-93 -107 0
-93 -120 0
-93 -133 0
-93 -134 0
-93 -135 0
-93 -136 0
-93 -137 0
-93 -138 0
-93 -139 0
-93 -140 0
-93 -141 0
-93 -142 0
-93 -143 0
-93 -144 0
-93 -219 0
-107 -120 0
-107 -133 0
-107 -134 0
-107 -135 0
-107 -136 0
-107 -137 0
-107 -138 0
-107 -139 0
-107 -140 0
-107 -141 0
-107 -142 0
-107 -143 0
-107 -144 0
-107 -219 0
-120 -133 0
-120 -134 0
-120 -135 0
-120 -136 0
-120 -137 0
-120 -138 0
-120 -139 0
-120 -140 0
-120 -141 0
-120 -142 0
-120 -143 0
-120 -144 0
-120 -219 0
-133 -134 0
-133 -135 0
-133 -136 0
-133 -137 0
-133 -138 0
-133 -139 0
-133 -140 0
-133 -141 0
-133 -142 0
-133 -143 0
-133 -144 0
-133 -219 0
-134 -135 0
-134 -136 0
-134 -137 0
-134 -138 0
-134 -139 0
-134 -140 0
-134 -141 0
-134 -142 0
-134 -143 0
-134 -144 0
-134 -219 0
-135 -136 0
-135 -137 0
-135 -138 0
-135 -139 0
-135 -140 0
-135 -141 0
-135 -142 0
-135 -143 0
-135 -144 0
-135 -219 0
-136 -137 0
-136 -138 0
-136 -139 0
-136 -140 0
-136 -141 0
-136 -142 0
-136 -143 0
-136 -144 0
-136 -219 0
-137 -138 0
-137 -139 0
-137 -140 0
-137 -141 0
-137 -142 0
-137 -143 0
-137 -144 0
-137 -219 0
-138 -139 0
-138 -140 0
-138 -141 0
-138 -142 0
-138 -143 0
-138 -144 0
-138 -219 0
-139 -140 0
-139 -141 0
-139 -142 0
-139 -143 0
-139 -144 0
-139 -219 0
-140 -141 0
-140 -142 0
-140 -143 0
-140 -144 0
-140 -219 0
-141 -142 0
-141 -143 0
-141 -144 0
-141 -219 0
-142 -143 0
-142 -144 0
-142 -219 0
-143 -144 0
-143 -219 0
-144 -219 0
9 28 46 63 79 94 108 121 133 145 146 147 148 149 150 151 152 153 154 155 220 0
-9 -28 0
-9 -46 0
-9 -63 0
-9 -79 0
-9 -94 0
-9 -108 0
-9 -121 0
-9 -133 0
-9 -145 0
-9 -146 0
-9 -147 0
-9 -148 0
-9 -149 0
-9 -150 0
-9 -151 0
-9 -152 0
-9 -153 0
-9 -154 0
-9 -155 0
-9 -220 0
-28 -46 0
-28 -63 0
-28 -79 0
-28 -94 0
-28 -108 0
-28 -121 0
-28 -133 0
-28 -145 0
-28 -146 0
-28 -147 0
-28 -148 0
-28 -149 0
-28 -150 0
-28 -151 0
-28 -152 0
-28 -153 0
-28 -154 0
-28 -155 0
-28 -220 0
-46 -63 0
-46 -79 0
-46 -94 0
-46 -108 0
-46 -121 0
-46 -133 0
-46 -145 0
-46 -146 0
-46 -147 0
-46 -148 0
-46 -149 0
-46 -150 0
-46 -151 0
-46 -152 0
-46 -153 0
-46 -154 0
-46 -155 0
-46 -220 0
-63 -79 0
-63 -94 0
-63 -108 0
-63 -121 0
-63 -133 0
-63 -145 0
-63 -146 0
-63 -147 0
-63 -148 0
-63 -149 0
-63 -150 0
-63 -151 0
-63 -152 0
-63 -153 0
-63 -154 0
-63 -155 0
-63 -220 0
-79 -94 0
-79 -108 0
-79 -121 0
-79 -133 0
-79 -145 0
-79 -146 0
-79 -147 0
-79 -148 0
-79 -149 0
-79 -150 0
-79 -151 0
-79 -152 0
-79 -153 0
-79 -154 0
-79 -155 0
-79 -220 0
-94 -108 0
-94 -121 0
-94 -133 0
-94 -145 0
-94 -146 0
-94 -147 0
-94 -148 0
-94 -149 0
-94 -150 0
-94 -151 0
-94 -152 0
-94 -153 0
-94 -154 0
-94 -155 0
-94 -220 0
-108 -121 0
-108 -133 0
-108 -145 0
-108 -146 0
-108 -147 0
-108 -148 0
-108 -149 0
-108 -150 0
-108 -151 0
-108 -152 0
-108 -153 0
-108 -154 0
-108 -155 0
-108 -220 0
-121 -133 0
-121 -145 0
-121 -146 0
-121 -147 0
-121 -148 0
-121 -149 0
-121 -150 0
-121 -151 0
-121 -152 0
-121 -153 0
-121 -154 0
-121 -155 0
-121 -220 0
-133 -145 0
-133 -146 0
-133 -147 0
-133 -148 0
-133 -149 0
-133 -150 0
-133 -151 0
-133 -152 0
-133 -153 0
-133 -154 0
-133 -155 0
-133 -220 0
-145 -146 0
-145 -147 0
-145 -148 0
-145 -149 0
-145 -150 0
-145 -151 0
-145 -152 0
-145 -153 0
-145 -154 0
-145 -155 0
-145 -220 0
-146 -147 0
-146 -148 0
-146 -149 0
-146 -150 0
-146 -151 0
-146 -152 0
-146 -153 0
-146 -154 0
-146 -155 0
-146 -220 0
-147 -148 0
-147 -149 0
-147 -150 0
-147 -151 0
-147 -152 0
-147 -153 0
-147 -154 0
-147 -155 0
-147 -220 0
-148 -149 0
-148 -150 0
-148 -151 0
-148 -152 0
-148 -153 0
-148 -154 0
-148 -155 0
-148 -220 0
-149 -150 0
-149 -151 0
-149 -152 0
-149 -153 0
-149 -154 0
-149 -155 0
-149 -220 0
-150 -151 0
-150 -152 0
-150 -153 0
-150 -154 0
-150 -155 0
-150 -220 0
-151 -152 0
-151 -153 0
-151 -154 0
-151 -155 0
-151 -220 0
-152 -153 0
-152 -154 0
-152 -155 0
-152 -220 0
-153 -154 0
-153 -155 0
-153 -220 0
-154 -155 0
-154 -220 0
-155 -220 0
10 29 47 64 80 95 109 122 134 145 156 157 158 159 160 161 162 163 164 165 221 0
-10 -29 0
-10 -47 0
-10 -64 0
-10 -80 0
-10 -95 0
-10 -109 0
-10 -122 0
-10 -134 0
-10 -145 0
-10 -156 0
-10 -157 0
-10 -158 0
-10 -159 0
-10 -160 0
-10 -161 0
-10 -162 0
-10 -163 0
-10 -164 0
-10 -165 0
-10 -221 0
-29 -47 0
-29 -64 0
-29 -80 0
-29 -95 0
-29 -109 0
-29 -122 0
-29 -134 0
-29 -145 0
-29 -156 0
-29 -157 0
-29 -158 0
-29 -159 0
-29 -160 0
-29 -161 0
-29 -162 0
-29 -163 0
-29 -164 0
-29 -165 0
-29 -221 0
-47 -64 0
-47 -80 0
-47 -95 0
-47 -109 0
-47 -122 0
-47 -134 0
-47 -145 0
-47 -156 0
-47 -157 0
-47 -158 0
-47 -159 0
-47 -160 0
-47 -161 0
-47 -162 0
-47 -163 0
-47 -164 0
-47 -165 0
-47 -221 0
-64 -80 0
-64 -95 0
-64 -109 0
-64 -122 0
-64 -134 0
-64 -145 0
-64 -156 0
-64 -157 0
-64 -158 0
-64 -159 0
-64 -160 0
-64 -161 0
-64 -162 0
-64 -163 0
-64 -164 0
-64 -165 0
-64 -221 0
-80 -95 0
-80 -109 0
-80 -122 0
-80 -134 0
-80 -145 0
-80 -156 0
-80 -157 0
-80 -158 0
-80 -159 0
-80 -160 0
-80 -161 0
-80 -162 0
-80 -163 0
-80 -164 0
-80 -165 0
-80 -221 0
-95 -109 0
-95 -122 0
-95 -134 0
-95 -145 0
-95 -156 0
-95 -157 0
-95 -158 0
-95 -159 0
-95 -160 0
-95 -161 0
-95 -162 0
-95 -163 0
-95 -164 0
-95 -165 0
-95 -221 0
-109 -122 0
-109 -134 0
-109 -145 0
-109 -156 0
-109 -157 0
-109 -158 0
-109 -159 0
-109 -160 0
-109 -161 0
-109 -162 0
-109 -163 0
-109 -164 0
-109 -165 0
-109 -221 0
-122 -134 0
-122 -145 0
-122 -156 0
-122 -157 0
-122 -158 0
-122 -159 0
-122 -160 0
-122 -161 0
-122 -162 0
-122 -163 0
-122 -164 0
-122 -165 0
-122 -221 0
-134 -145 0
-134 -156 0
-134 -157 0
-134 -158 0
-134 -159 0
-134 -160 0
-134 -161 0
-134 -162 0
-134 -163 0
-134 -164 0
-134 -165 0
-134 -221 0
-145 -156 0
-145 -157 0
-145 -158 0
-145 -159 0
-145 -160 0
-145 -161 0
-145 -162 0
-145 -163 0
-145 -164 0
-145 -165 0
-145 -221 0
-156 -157 0
-156 -158 0
-156 -159 0
-156 -160 0
-156 -161 0
-156 -162 0
-156 -163 0
-156 -164 0
-156 -165 0
-156 -221 0
-157 -158 0
-157 -159 0
-157 -160 0
-157 -161 0
-157 -162 0
-157 -163 0
-157 -164 0
-157 -165 0
-157 -221 0
-158 -159 0
-158 -160 0
-158 -161 0
-158 -162 0
-158 -163 0
-158 -164 0
-158 -165 0
-158 -221 0
-159 -160 0
-159 -161 0
-159 -162 0
-159 -163 0
-159 -164 0
-159 -165 0
-159 -221 0
-160 -161 0
-160 -162 0
-160 -163 0
-160 -164 0
-160 -165 0
-160 -221 0
-161 -162 0
-161 -163 0
-161 -164 0
-161 -165 0
-161 -221 0
-162 -163 0
-162 -164 0
-162 -165 0
-162 -221 0
-163 -164 0
-163 -165 0
-163 -221 0
-164 -165 0
-164 -221 0
-165 -221 0
11 30 48 65 81 96 110 123 135 146 156 166 167 168 169 170 171 172 173 174 222 0
-11 -30 0
-11 -48 0
-11 -65 0
-11 -81 0
-11 -96 0
-11 -110 0
-11 -123 0
-11 -135 0
-11 -146 0
-11 -156 0
-11 -166 0
-11 -167 0
-11 -168 0
-11 -169 0
-11 -170 0
-11 -171 0
-11 -172 0
-11 -173 0
-11 -174 0
-11 -222 0
-30 -48 0
-30 -65 0
-30 -81 0
-30 -96 0
-30 -110 0
-30 -123 0
-30 -135 0
-30 -146 0
-30 -156 0
-30 -166 0
-30 -167 0
-30 -168 0
-30 -169 0
-30 -170 0
-30 -171 0
-30 -172 0
-30 -173 0
-30 -174 0
-30 -222 0
-48 -65 0
-48 -81 0
-48 -96 0
-48 -110 0
-48 -123 0
-48 -135 0
-48 -146 0
-48 -156 0
-48 -166 0
-48 -167 0
-48 -168 0
-48 -169 0
-48 -170 0
-48 -171 0
-48 -172 0
-48 -173 0
-48 -174 0
-48 -222 0
-65 -81 0
-65 -96 0
-65 -110 0
-65 -123 0
-65 -135 0
-65 -146 0
-65 -156 0
-65 -166 0
-65 -167 0
-65 -168 0
-65 -169 0
-65 -170 0
-65 -171 0
-65 -172 0
-65 -173 0
-65 -174 0
-65 -222 0
-81 -96 0
-81 -110 0
-81 -123 0
-81 -135 0
-81 -146 0
-81 -156 0
-81 -166 0
-81 -167 0
-81 -168 0
-81 -169 0
-81 -170 0
-81 -171 0
-81 -172 0
-81 -173 0
-81 -174 0
-81 -222 0
-96 -110 0
-96 -123 0
-96 -135 0
-96 -146 0
-96 -156 0
-96 -166 0
-96 -167 0
-96 -168 0
-96 -169 0
-96 -170 0
-96 -171 0
-96 -172 0
-96 -173 0
-96 -174 0
-96 -222 0
-110 -123 0
-110 -135 0
-110 -146 0
-110 -156 0
-110 -166 0
-110 -167 0
-110 -168 0
-110 -169 0
-110 -170 0
-110 -171 0
-110 -172 0
-110 -173 0
-110 -174 0
-110 -222 0
-123 -135 0
-123 -146 0
-123 -156 0
-123 -166 0
-123 -167 0
-123 -168 0
-123 -169 0
-123 -170 0
-123 -171 0
-123 -172 0
-123 -173 0
-123 -174 0
-123 -222 0
-135 -146 0
-135 -156 0
-135 -166 0
-135 -167 0
-135 -168 0
-135 -169 0
-135 -170 0
-135 -171 0
-135 -172 0
-135 -173 0
-135 -174 0
-135 -222 0
-146 -156 0
-146 -166 0
-146 -167 0
-146 -168 0
-146 -169 0
-146 -170 0
-146 -171 0
-146 -172 0
-146 -173 0
-146 -174 0
-146 -222 0
-156 -166 0
-156 -167 0
-156 -168 0
-156 -169 0
-156 -170 0
-156 -171 0
-156 -172 0
-156 -173 0
-156 -174 0
-156 -222 0
-166 -167 0
-166 -168 0
-166 -169 0
-166 -170 0
-166 -171 0
-166 -172 0
-166 -173 0
-166 -174 0
-166 -222 0
-167 -168 0
-167 -169 0
-167 -170 0
-167 -171 0
-167 -172 0
-167 -173 0
-167 -174 0
-167 -222 0
-168 -169 0
-168 -170 0
-168 -171 0
-168 -172 0
-168 -173 0
-168 -174 0
-168 -222 0
-169 -170 0
-169 -171 0
-169 -172 0
-169 -173 0
-169 -174 0
-169 -222 0
-170 -171 0
-170 -172 0
-170 -173 0
-170 -174 0
-170 -222 0
-171 -172 0
-171 -173 0
-171 -174 0
-171 -222 0
-172 -173 0
-172 -174 0
-172 -222 0
-173 -174 0
-173 -222 0
-174 -222 0
12 31 49 66 82 97 111 124 136 147 157 166 175 176 177 178 179 180 181 182 223 0
-12 -31 0
-12 -49 0
-12 -66 0
-12 -82 0
-12 -97 0
-12 -111 0
-12 -124 0
-12 -136 0
-12 -147 0
-12 -157 0
-12 -166 0
-12 -175 0
-12 -176 0
-12 -177 0
-12 -178 0
-12 -179 0
-12 -180 0
-12 -181 0
-12 -182 0
-12 -223 0
-31 -49 0
-31 -66 0
-31 -82 0
-31 -97 0
-31 -111 0
-31 -124 0
-31 -136 0
-31 -147 0
-31 -157 0
-31 -166 0
-31 -175 0
-31 -176 0
-31 -177 0
-31 -178 0
-31 -179 0
-31 -180 0
-31 -181 0
-31 -182 0
-31 -223 0
-49 -66 0
-49 -82 0
-49 -97 0
-49 -111 0
-49 -124 0
-49 -136 0
-49 -147 0
-49 -157 0
-49 -166 0
-49 -175 0
-49 -176 0
-49 -177 0
-49 -178 0
-49 -179 0
-49 -180 0
-49 -181 0
-49 -182 0
-49 -223 0
-66 -82 0
-66 -97 0
-66 -111 0
-66 -124 0
-66 -136 0
-66 -147 0
-66 -157 0
-66 -166 0
-66 -175 0
-66 -176 0
-66 -177 0
-66 -178 0
-66 -179 0
-66 -180 0
-66 -181 0
-66 -182 0
-66 -223 0
-82 -97 0
-82 -111 0
-82 -124 0
-82 -136 0
-82 -147 0
-82 -157 0
-82 -166 0
-82 -175 0
-82 -176 0
-82 -177 0
-82 -178 0
-82 -179 0
-82 -180 0
-82 -181 0
-82 -182 0
-82 -223 0
-97 -111 0
-97 -124 0
-97 -136 0
-97 -147 0
-97 -157 0
-97 -166 0
-97 -175 0
-97 -176 0
-97 -177 0
-97 -178 0
-97 -179 0
-97 -180 0
-97 -181 0
-97 -182 0
-97 -223 0
-111 -124 0
-111 -136 0
-111 -147 0
-111 -157 0
-111 -166 0
-111 -175 0
-111 -176 0
-111 -177 0
-111 -178 0
-111 -179 0
-111 -180 0
-111 -181 0
-111 -182 0
-111 -223 0
-124 -136 0
-124 -147 0
-124 -157 0
-124 -166 0
-124 -175 0
-124 -176 0
-124 -177 0
-124 -178 0
-124 -179 0
-124 -180 0
-124 -181 0
-124 -182 0
-124 -223 0
-136 -147 0
-136 -157 0
-136 -166 0
-136 -175 0
-136 -176 0
-136 -177 0
-136 -178 0
-136 -179 0
-136 -180 0
-136 -181 0
-136 -182 0
-136 -223 0
-147 -157 0
-147 -166 0
-147 -175 0
-147 -176 0
-147 -177 0
-147 -178 0
-147 -179 0
-147 -180 0
-147 -181 0
-147 -182 0
-147 -223 0
-157 -166 0
-157 -175 0
-157 -176 0
-157 -177 0
-157 -178 0
-157 -179 0
-157 -180 0
-157 -181 0
-157 -182 0
-157 -223 0
-166 -175 0
-166 -176 0
-166 -177 0
-166 -178 0
-166 -179 0
-166 -180 0
-166 -181 0
-166 -182 0
-166 -223 0
-175 -176 0
-175 -177 0
-175 -178 0
-175 -179 0
-175 -180 0
-175 -181 0
-175 -182 0
-175 -223 0
-176 -177 0
-176 -178 0
-176 -179 0
-176 -180 0
-176 -181 0
-176 -182 0
-176 -223 0
-177 -178 0
-177 -179 0
-177 -180 0
-177 -181 0
-177 -182 0
-177 -223 0
-178 -179 0
-178 -180 0
-178 -181 0
-178 -182 0
-178 -223 0
-179 -180 0
-179 -181 0
-179 -182 0
-179 -223 0
-180 -181 0
-180 -182 0
-180 -223 0
-181 -182 0
-181 -223 0
-182 -223 0
13 32 50 67 83 98 112 125 137 148 158 167 175 183 184 185 186 187 188 189 224 0
-13 -32 0
-13 -50 0
-13 -67 0
-13 -83 0
-13 -98 0
-13 -112 0
-13 -125 0
-13 -137 0
-13 -148 0
-13 -158 0
-13 -167 0
-13 -175 0
-13 -183 0
-13 -184 0
-13 -185 0
-13 -186 0
-13 -187 0
-13 -188 0
-13 -189 0
-13 -224 0
-32 -50 0
-32 -67 0
-32 -83 0
-32 -98 0
-32 -112 0
-32 -125 0
-32 -137 0
-32 -148 0
-32 -158 0
-32 -167 0
-32 -175 0
-32 -183 0
-32 -184 0
-32 -185 0
-32 -186 0
-32 -187 0
-32 -188 0
-32 -189 0
-32 -224 0
-50 -67 0
-50 -83 0
-50 -98 0
-50 -112 0
-50 -125 0
-50 -137 0
-50 -148 0
-50 -158 0
-50 -167 0
-50 -175 0
-50 -183 0
-50 -184 0
-50 -185 0
-50 -186 0
-50 -187 0
-50 -188 0
-50 -189 0
-50 -224 0
-67 -83 0
-67 -98 0
-67 -112 0
-67 -125 0
-67 -137 0
-67 -148 0
-67 -158 0
-67 -167 0
-67 -175 0
-67 -183 0
-67 -184 0
-67 -185 0
-67 -186 0
-67 -187 0
-67 -188 0
-67 -189 0
-67 -224 0
-83 -98 0
-83 -112 0
-83 -125 0
-83 -137 0
-83 -148 0
-83 -158 0
-83 -167 0
-83 -175 0
-83 -183 0
-83 -184 0
-83 -185 0
-83 -186 0
-83 -187 0
-83 -188 0
-83 -189 0
-83 -224 0
-98 -112 0
-98 -125 0
-98 -137 0
-98 -148 0
-98 -158 0
-98 -167 0
-98 -175 0
-98 -183 0
-98 -184 0
-98 -185 0
-98 -186 0
-98 -187 0
-98 -188 0
-98 -189 0
-98 -224 0
-112 -125 0
-112 -137 0
-112 -148 0
-112 -158 0
-112 -167 0
-112 -175 0
-112 -183 0
-112 -184 0
-112 -185 0
-112 -186 0
-112 -187 0
-112 -188 0
-112 -189 0
-112 -224 0
-125 -137 0
-125 -148 0
-125 -158 0
-125 -167 0
-125 -175 0
-125 -183 0
-125 -184 0
-125 -185 0
-125 -186 0
-125 -187 0
-125 -188 0
-125 -189 0
-125 -224 0
-137 -148 0
-137 -158 0
-137 -167 0
-137 -175 0
-137 -183 0
-137 -184 0
-137 -185 0
-137 -186 0
-137 -187 0
-137 -188 0
-137 -189 0
-137 -224 0
-148 -158 0
-148 -167 0
-148 -175 0
-148 -183 0
-148 -184 0
-148 -185 0
-148 -186 0
-148 -187 0
-148 -188 0
-148 -189 0
-148 -224 0
-158 -167 0
-158 -175 0
-158 -183 0
-158 -184 0
-158 -185 0
-158 -186 0
-158 -187 0
-158 -188 0
-158 -189 0
-158 -224 0
-167 -175 0
-167 -183 0
-167 -184 0
-167 -185 0
-167 -186 0
-167 -187 0
-167 -188 0
-167 -189 0
-167 -224 0
-175 -183 0
-175 -184 0
-175 -185 0
-175 -186 0
-175 -187 0
-175 -188 0
-175 -189 0
-175 -224 0
-183 -184 0
-183 -185 0
-183 -186 0
-183 -187 0
-183 -188 0
-183 -189 0
-183 -224 0
-184 -185 0
-184 -186 0
-184 -187 0
-184 -188 0
-184 -189 0
-184 -224 0
-185 -186 0
-185 -187 0
-185 -188 0
-185 -189 0
-185 -224 0
-186 -187 0
-186 -188 0
-186 -189 0
-186 -224 0
-187 -188 0
-187 -189 0
-187 -224 0
-188 -189 0
-188 -224 0
-189 -224 0
14 33 51 68 84 99 113 126 138 149 159 168 176 183 190 191 192 193 194 195 225 0
-14 -33 0
-14 -51 0
-14 -68 0
-14 -84 0
-14 -99 0
-14 -113 0
-14 -126 0
-14 -138 0
-14 -149 0
-14 -159 0
-14 -168 0
-14 -176 0
-14 -183 0
-14 -190 0
-14 -191 0
-14 -192 0
-14 -193 0
-14 -194 0
-14 -195 0
-14 -225 0
-33 -51 0
-33 -68 0
-33 -84 0
-33 -99 0
-33 -113 0
-33 -126 0
-33 -138 0
-33 -149 0
-33 -159 0
-33 -168 0
-33 -176 0
-33 -183 0
-33 -190 0
-33 -191 0
-33 -192 0
-33 -193 0
-33 -194 0
-33 -195 0
-33 -225 0
-51 -68 0
-51 -84 0
-51 -99 0
-51 -113 0
-51 -126 0
-51 -138 0
-51 -149 0
-51 -159 0
-51 -168 0
-51 -176 0
-51 -183 0
-51 -190 0
-51 -191 0
-51 -192 0
-51 -193 0
-51 -194 0
-51 -195 0
-51 -225 0
-68 -84 0
-68 -99 0
-68 -113 0
-68 -126 0
-68 -138 0
-68 -149 0
-68 -159 0
-68 -168 0
-68 -176 0
-68 -183 0
-68 -190 0
-68 -191 0
-68 -192 0
-68 -193 0
-68 -194 0
-68 -195 0
-68 -225 0
-84 -99 0
-84 -113 0
-84 -126 0
-84 -138 0
-84 -149 0
-84 -159 0
-84 -168 0
-84 -176 0
-84 -183 0
-84 -190 0
-84 -191 0
-84 -192 0
-84 -193 0
-84 -194 0
-84 -195 0
-84 -225 0
-99 -113 0
-99 -126 0
-99 -138 0
-99 -149 0
-99 -159 0
-99 -168 0
-99 -176 0
-99 -183 0
-99 -190 0
-99 -191 0
-99 -192 0
-99 -193 0
-99 -194 0
-99 -195 0
-99 -225 0
-113 -126 0
-113 -138 0
-113 -149 0
-113 -159 0
-113 -168 0
-113 -176 0
-113 -183 0
-113 -190 0
-113 -191 0
-113 -192 0
-113 -193 0
-113 -194 0
-113 -195 0
-113 -225 0
-126 -138 0
-126 -149 0
-126 -159 0
-126 -168 0
-126 -176 0
-126 -183 0
-126 -190 0
-126 -191 0
-126 -192 0
-126 -193 0
-126 -194 0
-126 -195 0
-126 -225 0
-138 -149 0
-138 -159 0
-138 -168 0
-138 -176 0
-138 -183 0
-138 -190 0
-138 -191 0
-138 -192 0
-138 -193 0
-138 -194 0
-138 -195 0
-138 -225 0
-149 -159 0
-149 -168 0
-149 -176 0
-149 -183 0
-149 -190 0
-149 -191 0
-149 -192 0
-149 -193 0
-149 -194 0
-149 -195 0
-149 -225 0
-159 -168 0
-159 -176 0
-159 -183 0
-159 -190 0
-159 -191 0
-159 -192 0
-159 -193 0
-159 -194 0
-159 -195 0
-159 -225 0
-168 -176 0
-168 -183 0
-168 -190 0
-168 -191 0
-168 -192 0
-168 -193 0
-168 -194 0
-168 -195 0
-168 -225 0
-176 -183 0
-176 -190 0
-176 -191 0
-176 -192 0
-176 -193 0
-176 -194 0
-176 -195 0
-176 -225 0
-183 -190 0
-183 -191 0
-183 -192 0
-183 -193 0
-183 -194 0
-183 -195 0
-183 -225 0
-190 -191 0
-190 -192 0
-190 -193 0
-190 -194 0
-190 -195 0
-190 -225 0
-191 -192 0
-191 -193 0
-191 -194 0
-191 -195 0
-191 -225 0
-192 -193 0
-192 -194 0
-192 -195 0
-192 -225 0
-193 -194 0
-193 -195 0
-193 -225 0
-194 -195 0
-194 -225 0
-195 -225 0
15 34 52 69 85 100 114 127 139 150 160 169 177 184 190 196 197 198 199 200 226 0
-15 -34 0
-15 -52 0
-15 -69 0
-15 -85 0
-15 -100 0
-15 -114 0
-15 -127 0
-15 -139 0
-15 -150 0
-15 -160 0
-15 -169 0
-15 -177 0
-15 -184 0
-15 -190 0
-15 -196 0
-15 -197 0
-15 -198 0
-15 -199 0
-15 -200 0
-15 -226 0
-34 -52 0
-34 -69 0
-34 -85 0
-34 -100 0
-34 -114 0
-34 -127 0
-34 -139 0
-34 -150 0
-34 -160 0
-34 -169 0
-34 -177 0
-34 -184 0
-34 -190 0
-34 -196 0
-34 -197 0
-34 -198 0
-34 -199 0
-34 -200 0
-34 -226 0
-52 -69 0
-52 -85 0
-52 -100 0
-52 -114 0
-52 -127 0
-52 -139 0
-52 -150 0
-52 -160 0
-52 -169 0
-52 -177 0
-52 -184 0
-52 -190 0
-52 -196 0
-52 -197 0
-52 -198 0
-52 -199 0
-52 -200 0
-52 -226 0
-69 -85 0
-69 -100 0
-69 -114 0
-69 -127 0
-69 -139 0
-69 -150 0
-69 -160 0
-69 -169 0
-69 -177 0
-69 -184 0
-69 -190 0
-69 -196 0
-69 -197 0
-69 -198 0
-69 -199 0
-69 -200 0
-69 -226 0
-85 -100 0
-85 -114 0
-85 -127 0
-85 -139 0
-85 -150 0
-85 -160 0
-85 -169 0
-85 -177 0
-85 -184 0
-85 -190 0
-85 -196 0
-85 -197 0
-85 -198 0
-85 -199 0
-85 -200 0
-85 -226 0
-100 -114 0
-100 -127 0
-100 -139 0
-100 -150 0
-100 -160 0
-100 -169 0
-100 -177 0
-100 -184 0
-100 -190 0
-100 -196 0
-100 -197 0
-100 -198 0
-100 -199 0
-100 -200 0
-100 -226 0
-114 -127 0
-114 -139 0
-114 -150 0
-114 -160 0
-114 -169 0
-114 -177 0
-114 -184 0
-114 -190 0
-114 -196 0
-114 -197 0
-114 -198 0
-114 -199 0
-114 -200 0
-114 -226 0
-127 -139 0
-127 -150 0
-127 -160 0
-127 -169 0
-127 -177 0
-127 -184 0
-127 -190 0
-127 -196 0
-127 -197 0
-127 -198 0
-127 -199 0
-127 -200 0
-127 -226 0
-139 -150 0
-139 -160 0
-139 -169 0
-139 -177 0
-139 -184 0
-139 -190 0
-139 -196 0
-139 -197 0
-139 -198 0
-139 -199 0
-139 -200 0
-139 -226 0
-150 -160 0
-150 -169 0
-150 -177 0
-150 -184 0
-150 -190 0
-150 -196 0
-150 -197 0
-150 -198 0
-150 -199 0
-150 -200 0
-150 -226 0
-160 -169 0
-160 -177 0
-160 -184 0
-160 -190 0
-160 -196 0
-160 -197 0
-160 -198 0
-160 -199 0
-160 -200 0
-160 -226 0
-169 -177 0
-169 -184 0
-169 -190 0
-169 -196 0
-169 -197 0
-169 -198 0
-169 -199 0
-169 -200 0
-169 -226 0
-177 -184 0
-177 -190 0
-177 -196 0
-177 -197 0
-177 -198 0
-177 -199 0
-177 -200 0
-177 -226 0
-184 -190 0
-184 -196 0
-184 -197 0
-184 -198 0
-184 -199 0
-184 -200 0
-184 -226 0
-190 -196 0
-190 -197 0
-190 -198 0
-190 -199 0
-190 -200 0
-190 -226 0
-196 -197 0
-196 -198 0
-196 -199 0
-196 -200 0
-196 -226 0
-197 -198 0
-197 -199 0
-197 -200 0
-197 -226 0
-198 -199 0
-198 -200 0
-198 -226 0
-199 -200 0
-199 -226 0
-200 -226 0
16 35 53 70 86 101 115 128 140 151 161 170 178 185 191 196 201 202 203 204 227 0
-16 -35 0
-16 -53 0
-16 -70 0
-16 -86 0
-16 -101 0
-16 -115 0
-16 -128 0
-16 -140 0
-16 -151 0
-16 -161 0
-16 -170 0
-16 -178 0
-16 -185 0
-16 -191 0
-16 -196 0
-16 -201 0
-16 -202 0
-16 -203 0
-16 -204 0
-16 -227 0
-35 -53 0
-35 -70 0
-35 -86 0
-35 -101 0
-35 -115 0
-35 -128 0
-35 -140 0
-35 -151 0
-35 -161 0
-35 -170 0
-35 -178 0
-35 -185 0
-35 -191 0
-35 -196 0
-35 -201 0
-35 -202 0
-35 -203 0
-35 -204 0
-35 -227 0
-53 -70 0
-53 -86 0
-53 -101 0
-53 -115 0
-53 -128 0
-53 -140 0
-53 -151 0
-53 -161 0
-53 -170 0
-53 -178 0
-53 -185 0
-53 -191 0
-53 -196 0
-53 -201 0
-53 -202 0
-53 -203 0
-53 -204 0
-53 -227 0
-70 -86 0
-70 -101 0
-70 -115 0
-70 -128 0
-70 -140 0
-70 -151 0
-70 -161 0
-70 -170 0
-70 -178 0
-70 -185 0
-70 -191 0
-70 -196 0
-70 -201 0
-70 -202 0
-70 -203 0
-70 -204 0
-70 -227 0
-86 -101 0
-86 -115 0
-86 -128 0
-86 -140 0
-86 -151 0
-86 -161 0
-86 -170 0
-86 -178 0
-86 -185 0
-86 -191 0
-86 -196 0
-86 -201 0
-86 -202 0
-86 -203 0
-86 -204 0
-86 -227 0
-101 -115 0
-101 -128 0
-101 -140 0
-101 -151 0
-101 -161 0
-101 -170 0
-101 -178 0
-101 -185 0
-101 -191 0
-101 -196 0
-101 -201 0
-101 -202 0
-101 -203 0
-101 -204 0
-101 -227 0
-115 -128 0
-115 -140 0
-115 -151 0
-115 -161 0
-115 -170 0
-115 -178 0
-115 -185 0
-115 -191 0
-115 -196 0
-115 -201 0
-115 -202 0
-115 -203 0
-115 -204 0
-115 -227 0
-128 -140 0
-128 -151 0
-128 -161 0
-128 -170 0
-128 -178 0
-128 -185 0
-128 -191 0
-128 -196 0
-128 -201 0
-128 -202 0
-128 -203 0
-128 -204 0
-128 -227 0
-140 -151 0
-140 -161 0
-140 -170 0
-140 -178 0
-140 -185 0
-140 -191 0
-140 -196 0
-140 -201 0
-140 -202 0
-140 -203 0
-140 -204 0
-140 -227 0
-151 -161 0
-151 -170 0
-151 -178 0
-151 -185 0
-151 -191 0
-151 -196 0
-151 -201 0
-151 -202 0
-151 -203 0
-151 -204 0
-151 -227 0
-161 -170 0
-161 -178 0
-161 -185 0
-161 -191 0
-161 -196 0
-161 -201 0
-161 -202 0
-161 -203 0
-161 -204 0
-161 -227 0
-170 -178 0
-170 -185 0
-170 -191 0
-170 -196 0
-170 -201 0
-170 -202 0
-170 -203 0
-170 -204 0
-170 -227 0
-178 -185 0
-178 -191 0
-178 -196 0
-178 -201 0
-178 -202 0
-178 -203 0
-178 -204 0
-178 -227 0
-185 -191 0
-185 -196 0
-185 -201 0
-185 -202 0
-185 -203 0
-185 -204 0
-185 -227 0
-191 -196 0
-191 -201 0
-191 -202 0
-191 -203 0
-191 -204 0
-191 -227 0
-196 -201 0
-196 -202 0
-196 -203 0
-196 -204 0
-196 -227 0
-201 -202 0
-201 -203 0
-201 -204 0
-201 -227 0
-202 -203 0
-202 -204 0
-202 -227 0
-203 -204 0
-203 -227 0
-204 -227 0
17 36 54 71 87 102 116 129 141 152 162 171 179 186 192 197 201 205 206 207 228 0
-17 -36 0
-17 -54 0
-17 -71 0
-17 -87 0
-17 -102 0
-17 -116 0
-17 -129 0
-17 -141 0
-17 -152 0
-17 -162 0
-17 -171 0
-17 -179 0
-17 -186 0
-17 -192 0
-17 -197 0
-17 -201 0
-17 -205 0
-17 -206 0
-17 -207 0
-17 -228 0
-36 -54 0
-36 -71 0
-36 -87 0
-36 -102 0
-36 -116 0
-36 -129 0
-36 -141 0
-36 -152 0
-36 -162 0
-36 -171 0
-36 -179 0
-36 -186 0
-36 -192 0
-36 -197 0
-36 -201 0
-36 -205 0
-36 -206 0
-36 -207 0
-36 -228 0
-54 -71 0
-54 -87 0
-54 -102 0
-54 -116 0
-54 -129 0
-54 -141 0
-54 -152 0
-54 -162 0
-54 -171 0
-54 -179 0
-54 -186 0
-54 -192 0
-54 -197 0
-54 -201 0
-54 -205 0
-54 -206 0
-54 -207 0
-54 -228 0
-71 -87 0
-71 -102 0
-71 -116 0
-71 -129 0
-71 -141 0
-71 -152 0
-71 -162 0
-71 -171 0
-71 -179 0
-71 -186 0
-71 -192 0
-71 -197 0
-71 -201 0
-71 -205 0
-71 -206 0
-71 -207 0
-71 -228 0
-87 -102 0
-87 -116 0
-87 -129 0
-87 -141 0
-87 -152 0
-87 -162 0
-87 -171 0
-87 -179 0
-87 -186 0
-87 -192 0
-87 -197 0
-87 -201 0
-87 -205 0
-87 -206 0
-87 -207 0
-87 -228 0
-102 -116 0
-102 -129 0
-102 -141 0
-102 -152 0
-102 -162 0
-102 -171 0
-102 -179 0
-102 -186 0
-102 -192 0
-102 -197 0
-102 -201 0
-102 -205 0
-102 -206 0
-102 -207 0
-102 -228 0
-116 -129 0
-116 -141 0
-116 -152 0
-116 -162 0
-116 -171 0
-116 -179 0
-116 -186 0
-116 -192 0
-116 -197 0
-116 -201 0
-116 -205 0
-116 -206 0
-116 -207 0
-116 -228 0
-129 -141 0
-129 -152 0
-129 -162 0
-129 -171 0
-129 -179 0
-129 -186 0
-129 -192 0
-129 -197 0
-129 -201 0
-129 -205 0
-129 -206 0
-129 -207 0
-129 -228 0
-141 -152 0
-141 -162 0
-141 -171 0
-141 -179 0
-141 -186 0
-141 -192 0
-141 -197 0
-141 -201 0
-141 -205 0
-141 -206 0
-141 -207 0
-141 -228 0
-152 -162 0
-152 -171 0
-152 -179 0
-152 -186 0
-152 -192 0
-152 -197 0
-152 -201 0
-152 -205 0
-152 -206 0
-152 -207 0
-152 -228 0
-162 -171 0
-162 -179 0
-162 -186 0
-162 -192 0
-162 -197 0
-162 -201 0
-162 -205 0
-162 -206 0
-162 -207 0
-162 -228 0
-171 -179 0
-171 -186 0
-171 -192 0
-171 -197 0
-171 -201 0
-171 -205 0
-171 -206 0
-171 -207 0
-171 -228 0
-179 -186 0
-179 -192 0
-179 -197 0
-179 -201 0
-179 -205 0
-179 -206 0
-179 -207 0
-179 -228 0
-186 -192 0
-186 -197 0
-186 -201 0
-186 -205 0
-186 -206 0
-186 -207 0
-186 -228 0
-192 -197 0
-192 -201 0
-192 -205 0
-192 -206 0
-192 -207 0
-192 -228 0
-197 -201 0
-197 -205 0
-197 -206 0
-197 -207 0
-197 -228 0
-201 -205 0
-201 -206 0
-201 -207 0
-201 -228 0
-205 -206 0
-205 -207 0
-205 -228 0
-206 -207 0
-206 -228 0
-207 -228 0
18 37 55 72 88 103 117 130 142 153 163 172 180 187 193 198 202 205 208 209 229 0
-18 -37 0
-18 -55 0
-18 -72 0
-18 -88 0
-18 -103 0
-18 -117 0
-18 -130 0
-18 -142 0
-18 -153 0
-18 -163 0
-18 -172 0
-18 -180 0
-18 -187 0
-18 -193 0
-18 -198 0
-18 -202 0
-18 -205 0
-18 -208 0
-18 -209 0
-18 -229 0
-37 -55 0
-37 -72 0
-37 -88 0
-37 -103 0
-37 -117 0
-37 -130 0
-37 -142 0
-37 -153 0
-37 -163 0
-37 -172 0
-37 -180 0
-37 -187 0
-37 -193 0
-37 -198 0
-37 -202 0
-37 -205 0
-37 -208 0
-37 -209 0
-37 -229 0
-55 -72 0
-55 -88 0
-55 -103 0
-55 -117 0
-55 -130 0
-55 -142 0
-55 -153 0
-55 -163 0
-55 -172 0
-55 -180 0
-55 -187 0
-55 -193 0
-55 -198 0
-55 -202 0
-55 -205 0
-55 -208 0
-55 -209 0
-55 -229 0
-72 -88 0
-72 -103 0
-72 -117 0
-72 -130 0
-72 -142 0
-72 -153 0
-72 -163 0
-72 -172 0
-72 -180 0
-72 -187 0
-72 -193 0
-72 -198 0
-72 -202 0
-72 -205 0
-72 -208 0
-72 -209 0
-72 -229 0
-88 -103 0
-88 -117 0
-88 -130 0
-88 -142 0
-88 -153 0
-88 -163 0
-88 -172 0
-88 -180 0
-88 -187 0
-88 -193 0
-88 -198 0
-88 -202 0
-88 -205 0
-88 -208 0
-88 -209 0
-88 -229 0
-103 -117 0
-103 -130 0
-103 -142 0
-103 -153 0
-103 -163 0
-103 -172 0
-103 -180 0
-103 -187 0
-103 -193 0
-103 -198 0
-103 -202 0
-103 -205 0
-103 -208 0
-103 -209 0
-103 -229 0
-117 -130 0
-117 -142 0
-117 -153 0
-117 -163 0
-117 -172 0
-117 -180 0
-117 -187 0
-117 -193 0
-117 -198 0
-117 -202 0
-117 -205 0
-117 -208 0
-117 -209 0
-117 -229 0
-130 -142 0
-130 -153 0
-130 -163 0
-130 -172 0
-130 -180 0
-130 -187 0
-130 -193 0
-130 -198 0
-130 -202 0
-130 -205 0
-130 -208 0
-130 -209 0
-130 -229 0
-142 -153 0
-142 -163 0
-142 -172 0
-142 -180 0
-142 -187 0
-142 -193 0
-142 -198 0
-142 -202 0
-142 -205 0
-142 -208 0
-142 -209 0
-142 -229 0
-153 -163 0
-153 -172 0
-153 -180 0
-153 -187 0
-153 -193 0
-153 -198 0
-153 -202 0
-153 -205 0
-153 -208 0
-153 -209 0
-153 -229 0
-163 -172 0
-163 -180 0
-163 -187 0
-163 -193 0
-163 -198 0
-163 -202 0
-163 -205 0
-163 -208 0
-163 -209 0
-163 -229 0
-172 -180 0
-172 -187 0
-172 -193 0
-172 -198 0
-172 -202 0
-172 -205 0
-172 -208 0
-172 -209 0
-172 -229 0
-180 -187 0
-180 -193 0
-180 -198 0
-180 -202 0
-180 -205 0
-180 -208 0
-180 -209 0
-180 -229 0
-187 -193 0
-187 -198 0
-187 -202 0
-187 -205 0
-187 -208 0
-187 -209 0
-187 -229 0
-193 -198 0
-193 -202 0
-193 -205 0
-193 -208 0
-193 -209 0
-193 -229 0
-198 -202 0
-198 -205 0
-198 -208 0
-198 -209 0
-198 -229 0
-202 -205 0
-202 -208 0
-202 -209 0
-202 -229 0
-205 -208 0
-205 -209 0
-205 -229 0
-208 -209 0
-208 -229 0
-209 -229 0
19 38 56 73 89 104 118 131 143 154 164 173 181 188 194 199 203 206 208 210 230 0
-19 -38 0
-19 -56 0
-19 -73 0
-19 -89 0
-19 -104 0
-19 -118 0
-19 -131 0
-19 -143 0
-19 -154 0
-19 -164 0
-19 -173 0
-19 -181 0
-19 -188 0
-19 -194 0
-19 -199 0
-19 -203 0
-19 -206 0
-19 -208 0
-19 -210 0
-19 -230 0
-38 -56 0
-38 -73 0
-38 -89 0
-38 -104 0
-38 -118 0
-38 -131 0
-38 -143 0
-38 -154 0
-38 -164 0
-38 -173 0
-38 -181 0
-38 -188 0
-38 -194 0
-38 -199 0
-38 -203 0
-38 -206 0
-38 -208 0
-38 -210 0
-38 -230 0
-56 -73 0
-56 -89 0
-56 -104 0
-56 -118 0
-56 -131 0
-56 -143 0
-56 -154 0
-56 -164 0
-56 -173 0
-56 -181 0
-56 -188 0
-56 -194 0
-56 -199 0
-56 -203 0
-56 -206 0
-56 -208 0
-56 -210 0
-56 -230 0
-73 -89 0
-73 -104 0
-73 -118 0
-73 -131 0
-73 -143 0
-73 -154 0
-73 -164 0
-73 -173 0
-73 -181 0
-73 -188 0
-73 -194 0
-73 -199 0
-73 -203 0
-73 -206 0
-73 -208 0
-73 -210 0
-73 -230 0
-89 -104 0
-89 -118 0
-89 -131 0
-89 -143 0
-89 -154 0
-89 -164 0
-89 -173 0
-89 -181 0
-89 -188 0
-89 -194 0
-89 -199 0
-89 -203 0
-89 -206 0
-89 -208 0
-89 -210 0
-89 -230 0
-104 -118 0
-104 -131 0
-104 -143 0
-104 -154 0
-104 -164 0
-104 -173 0
-104 -181 0
-104 -188 0
-104 -194 0
-104 -199 0
-104 -203 0
-104 -206 0
-104 -208 0
-104 -210 0
-104 -230 0
-118 -131 0
-118 -143 0
-118 -154 0
-118 -164 0
-118 -173 0
-118 -181 0
-118 -188 0
-118 -194 0
-118 -199 0
-118 -203 0
-118 -206 0
-118 -208 0
-118 -210 0
-118 -230 0
-131 -143 0
-131 -154 0
-131 -164 0
-131 -173 0
-131 -181 0
-131 -188 0
-131 -194 0
-131 -199 0
-131 -203 0
-131 -206 0
-131 -208 0
-131 -210 0
-131 -230 0
-143 -154 0
-143 -164 0
-143 -173 0
-143 -181 0
-143 -188 0
-143 -194 0
-143 -199 0
-143 -203 0
-143 -206 0
-143 -208 0
-143 -210 0
-143 -230 0
-154 -164 0
-154 -173 0
-154 -181 0
-154 -188 0
-154 -194 0
-154 -199 0
-154 -203 0
-154 -206 0
-154 -208 0
-154 -210 0
-154 -230 0
-164 -173 0
-164 -181 0
-164 -188 0
-164 -194 0
-164 -199 0
-164 -203 0
-164 -206 0
-164 -208 0
-164 -210 0
-164 -230 0
-173 -181 0
-173 -188 0
-173 -194 0
-173 -199 0
-173 -203 0
-173 -206 0
-173 -208 0
-173 -210 0
-173 -230 0
-181 -188 0
-181 -194 0
-181 -199 0
-181 -203 0
-181 -206 0
-181 -208 0
-181 -210 0
-181 -230 0
-188 -194 0
-188 -199 0
-188 -203 0
-188 -206 0
-188 -208 0
-188 -210 0
-188 -230 0
-194 -199 0
-194 -203 0
-194 -206 0
-194 -208 0
-194 -210 0
-194 -230 0
-199 -203 0
-199 -206 0
-199 -208 0
-199 -210 0
-199 -230 0
-203 -206 0
-203 -208 0
-203 -210 0
-203 -230 0
-206 -208 0
-206 -210 0
-206 -230 0
-208 -210 0
-208 -230 0
-210 -230 0
20 39 57 74 90 105 119 132 144 155 165 174 182 189 195 200 204 207 209 210 231 0
-20 -39 0
-20 -57 0
-20 -74 0
-20 -90 0
-20 -105 0
-20 -119 0
-20 -132 0
-20 -144 0
-20 -155 0
-20 -165 0
-20 -174 0
-20 -182 0
-20 -189 0
-20 -195 0
-20 -200 0
-20 -204 0
-20 -207 0
-20 -209 0
-20 -210 0
-20 -231 0
-39 -57 0
-39 -74 0
-39 -90 0
-39 -105 0
-39 -119 0
-39 -132 0
-39 -144 0
-39 -155 0
-39 -165 0
-39 -174 0
-39 -182 0
-39 -189 0
-39 -195 0
-39 -200 0
-39 -204 0
-39 -207 0
-39 -209 0
-39 -210 0
-39 -231 0
-57 -74 0
-57 -90 0
-57 -105 0
-57 -119 0
-57 -132 0
-57 -144 0
-57 -155 0
-57 -165 0
-57 -174 0
-57 -182 0
-57 -189 0
-57 -195 0
-57 -200 0
-57 -204 0
-57 -207 0
-57 -209 0
-57 -210 0
-57 -231 0
-74 -90 0
-74 -105 0
-74 -119 0
-74 -132 0
-74 -144 0
-74 -155 0
-74 -165 0
-74 -174 0
-74 -182 0
-74 -189 0
-74 -195 0
-74 -200 0
-74 -204 0
-74 -207 0
-74 -209 0
-74 -210 0
-74 -231 0
-90 -105 0
-90 -119 0
-90 -132 0
-90 -144 0
-90 -155 0
-90 -165 0
-90 -174 0
-90 -182 0
-90 -189 0
-90 -195 0
-90 -200 0
-90 -204 0
-90 -207 0
-90 -209 0
-90 -210 0
-90 -231 0
-105 -119 0
-105 -132 0
-105 -144 0
-105 -155 0
-105 -165 0
-105 -174 0
-105 -182 0
-105 -189 0
-105 -195 0
-105 -200 0
-105 -204 0
-105 -207 0
-105 -209 0
-105 -210 0
-105 -231 0
-119 -132 0
-119 -144 0
-119 -155 0
-119 -165 0
-119 -174 0
-119 -182 0
-119 -189 0
-119 -195 0
-119 -200 0
-119 -204 0
-119 -207 0
-119 -209 0
-119 -210 0
-119 -231 0
-132 -144 0
-132 -155 0
-132 -165 0
-132 -174 0
-132 -182 0
-132 -189 0
-132 -195 0
-132 -200 0
-132 -204 0
-132 -207 0
-132 -209 0
-132 -210 0
-132 -231 0
-144 -155 0
-144 -165 0
-144 -174 0
-144 -182 0
-144 -189 0
-144 -195 0
-144 -200 0
-144 -204 0
-144 -207 0
-144 -209 0
-144 -210 0
-144 -231 0
-155 -165 0
-155 -174 0
-155 -182 0
-155 -189 0
-155 -195 0
-155 -200 0
-155 -204 0
-155 -207 0
-155 -209 0
-155 -210 0
-155 -231 0
-165 -174 0
-165 -182 0
-165 -189 0
-165 -195 0
-165 -200 0
-165 -204 0
-165 -207 0
-165 -209 0
-165 -210 0
-165 -231 0
-174 -182 0
-174 -189 0
-174 -195 0
-174 -200 0
-174 -204 0
-174 -207 0
-174 -209 0
-174 -210 0
-174 -231 0
-182 -189 0
-182 -195 0
-182 -200 0
-182 -204 0
-182 -207 0
-182 -209 0
-182 -210 0
-182 -231 0
-189 -195 0
-189 -200 0
-189 -204 0
-189 -207 0
-189 -209 0
-189 -210 0
-189 -231 0
-195 -200 0
-195 -204 0
-195 -207 0
-195 -209 0
-195 -210 0
-195 -231 0
-200 -204 0
-200 -207 0
-200 -209 0
-200 -210 0
-200 -231 0
-204 -207 0
-204 -209 0
-204 -210 0
-204 -231 0
-207 -209 0
-207 -210 0
-207 -231 0
-209 -210 0
-209 -231 0
-210 -231 0
211 212 213 214 215 216 217 218 219 220 221 222 223 224 225 226 227 228 229 230 231 0
-211 -212 0
-211 -213 0
-211 -214 0
-211 -215 0
-211 -216 0
-211 -217 0
-211 -218 0
-211 -219 0
-211 -220 0
-211 -221 0
-211 -222 0
-211 -223 0
-211 -224 0
-211 -225 0
-211 -226 0
-211 -227 0
-211 -228 0
-211 -229 0
-211 -230 0
-211 -231 0
-212 -213 0
-212 -214 0
-212 -215 0
-212 -216 0
-212 -217 0
-212 -218 0
-212 -219 0
-212 -220 0
-212 -221 0
-212 -222 0
-212 -223 0
-212 -224 0
-212 -225 0
-212 -226 0
-212 -227 0
-212 -228 0
-212 -229 0
-212 -230 0
-212 -231 0
-213 -214 0
-213 -215 0
-213 -216 0
-213 -217 0
-213 -218 0
-213 -219 0
-213 -220 0
-213 -221 0
-213 -222 0
-213 -223 0
-213 -224 0
-213 -225 0
-213 -226 0
-213 -227 0
-213 -228 0
-213 -229 0
-213 -230 0
-213 -231 0
-214 -215 0
-214 -216 0
-214 -217 0
-214 -218 0
-214 -219 0
-214 -220 0
-214 -221 0
-214 -222 0
-214 -223 0
-214 -224 0
-214 -225 0
-214 -226 0
-214 -227 0
-214 -228 0
-214 -229 0
-214 -230 0
-214 -231 0
-215 -216 0
-215 -217 0
-215 -218 0
-215 -219 0
-215 -220 0
-215 -221 0
-215 -222 0
-215 -223 0
-215 -224 0
-215 -225 0
-215 -226 0
-215 -227 0
-215 -228 0
-215 -229 0
-215 -230 0
-215 -231 0
-216 -217 0
-216 -218 0
-216 -219 0
-216 -220 0
-216 -221 0
-216 -222 0
-216 -223 0
-216 -224 0
-216 -225 0
-216 -226 0
-216 -227 0
-216 -228 0
-216 -229 0
-216 -230 0
-216 -231 0
-217 -218 0
-217 -219 0
-217 -220 0
-217 -221 0
-217 -222 0
-217 -223 0
-217 -224 0
-217 -225 0
-217 -226 0
-217 -227 0
-217 -228 0
-217 -229 0
-217 -230 0
-217 -231 0
-218 -219 0
-218 -220 0
-218 -221 0
-218 -222 0
-218 -223 0
-218 -224 0
-218 -225 0
-218 -226 0
-218 -227 0
-218 -228 0
-218 -229 0
-218 -230 0
-218 -231 0
-219 -220 0
-219 -221 0
-219 -222 0
-219 -223 0
-219 -224 0
-219 -225 0
-219 -226 0
-219 -227 0
-219 -228 0
-219 -229 0
-219 -230 0
-219 -231 0
-220 -221 0
-220 -222 0
-220 -223 0
-220 -224 0
-220 -225 0
-220 -226 0
-220 -227 0
-220 -228 0
-220 -229 0
-220 -230 0
-220 -231 0
-221 -222 0
-221 -223 0
-221 -224 0
-221 -225 0
-221 -226 0
-221 -227 0
-221 -228 0
-221 -229 0
-221 -230 0
-221 -231 0
-222 -223 0
-222 -224 0
-222 -225 0
-222 -226 0
-222 -227 0
-222 -228 0
-222 -229 0
-222 -230 0
-222 -231 0
-223 -224 0
-223 -225 0
-223 -226 0
-223 -227 0
-223 -228 0
-223 -229 0
-223 -230 0
-223 -231 0
-224 -225 0
-224 -226 0
-224 -227 0
-224 -228 0
-224 -229 0
-224 -230 0
-224 -231 0
-225 -226 0
-225 -227 0
-225 -228 0
-225 -229 0
-225 -230 0
-225 -231 0
-226 -227 0
-226 -228 0
-226 -229 0
-226 -230 0
-226 -231 0
-227 -228 0
-227 -229 0
-227 -230 0
-227 -231 0
-228 -229 0
-228 -230 0
-228 -231 0
-229 -230 0
-229 -231 0
-230 -231 0
-232 1 0
-1 232 0
-233 2 0
-2 233 0
-234 3 0
-3 234 0
-235 4 0
-4 235 0
-236 5 0
-5 236 0
-237 6 0
-6 237 0
-238 7 0
-7 238 0
-239 8 0
-8 239 0
-240 9 0
-9 240 0
-241 10 0
-10 241 0
-242 11 0
-11 242 0
-243 12 0
-12 243 0
-244 211 0
-211 244 0
-245 14 0
-14 245 0
-246 13 0
-13 246 0
-247 16 0
-16 247 0
-248 15 0
-15 248 0
-249 18 0
-18 249 0
-250 17 0
-17 250 0
-251 20 0
-20 251 0
-252 19 0
-19 252 0
-253 212 0
-212 253 0
-254 21 0
-21 254 0
-255 22 0
-22 255 0
-256 23 0
-23 256 0
-257 24 0
-24 257 0
-258 25 0
-25 258 0
-259 26 0
-26 259 0
-260 27 0
-27 260 0
-261 28 0
-28 261 0
-262 29 0
-29 262 0
-263 30 0
-30 263 0
-264 31 0
-31 264 0
-265 1 0
-1 265 0
-266 33 0
-33 266 0
-267 32 0
-32 267 0
-268 35 0
-35 268 0
-269 34 0
-34 269 0
-270 37 0
-37 270 0
-271 36 0
-36 271 0
-272 39 0
-39 272 0
-273 38 0
-38 273 0
-274 21 0
-21 274 0
-275 213 0
-213 275 0
-276 40 0
-40 276 0
-277 41 0
-41 277 0
-278 42 0
-42 278 0
-279 43 0
-43 279 0
-280 44 0
-44 280 0
-281 45 0
-45 281 0
-282 46 0
-46 282 0
-283 47 0
-47 283 0
-284 48 0
-48 284 0
-285 49 0
-49 285 0
-286 2 0
-2 286 0
-287 51 0
-51 287 0
-288 50 0
-50 288 0
-289 53 0
-53 289 0
-290 52 0
-52 290 0
-291 55 0
-55 291 0
-292 54 0
-54 292 0
-293 57 0
-57 293 0
-294 56 0
-56 294 0
-295 22 0
-22 295 0
-296 40 0
-40 296 0
-297 214 0
-214 297 0
-298 58 0
-58 298 0
-299 59 0
-59 299 0
-300 60 0
-60 300 0
-301 61 0
-61 301 0
-302 62 0
-62 302 0
-303 63 0
-63 303 0
-304 64 0
-64 304 0
-305 65 0
-65 305 0
-306 66 0
-66 306 0
-307 3 0
-3 307 0
-308 68 0
-68 308 0
-309 67 0
-67 309 0
-310 70 0
-70 310 0
-311 69 0
-69 311 0
-312 72 0
-72 312 0
-313 71 0
-71 313 0
-314 74 0
-74 314 0
-315 73 0
-73 315 0
-316 23 0
-23 316 0
-317 41 0
-41 317 0
-318 58 0
-58 318 0
-319 215 0
-215 319 0
-320 75 0
-75 320 0
-321 76 0
-76 321 0
-322 77 0
-77 322 0
-323 78 0
-78 323 0
-324 79 0
-79 324 0
-325 80 0
-80 325 0
-326 81 0
-81 326 0
-327 82 0
-82 327 0
-328 4 0
-4 328 0
-329 84 0
-84 329 0
-330 83 0
-83 330 0
-331 86 0
-86 331 0
-332 85 0
-85 332 0
-333 88 0
-88 333 0
-334 87 0
-87 334 0
-335 90 0
-90 335 0
-336 89 0
-89 336 0
-337 24 0
-24 337 0
-338 42 0
-42 338 0
-339 59 0
-59 339 0
-340 75 0
-75 340 0
-341 216 0
-216 341 0
-342 91 0
-91 342 0
-343 92 0
-92 343 0
-344 93 0
-93 344 0
-345 94 0
-94 345 0
-346 95 0
-95 346 0
-347 96 0
-96 347 0
-348 97 0
-97 348 0
-349 5 0
-5 349 0
-350 99 0
-99 350 0
-351 98 0
-98 351 0
-352 101 0
-101 352 0
-353 100 0
-100 353 0
-354 103 0
-103 354 0
-355 102 0
-102 355 0
-356 105 0
-105 356 0
-357 104 0
-104 357 0
-358 25 0
-25 358 0
-359 43 0
-43 359 0
-360 60 0
-60 360 0
-361 76 0
-76 361 0
-362 91 0
-91 362 0
-363 217 0
-217 363 0
-364 106 0
-106 364 0
-365 107 0
-107 365 0
-366 108 0
-108 366 0
-367 109 0
-109 367 0
-368 110 0
-110 368 0
-369 111 0
-111 369 0
-370 6 0
-6 370 0
-371 113 0
-113 371 0
-372 112 0
-112 372 0
-373 115 0
-115 373 0
-374 114 0
-114 374 0
-375 117 0
-117 375 0
-376 116 0
-116 376 0
-377 119 0
-119 377 0
-378 118 0
-118 378 0
-379 26 0
-26 379 0
-380 44 0
-44 380 0
-381 61 0
-61 381 0
-382 77 0
-77 382 0
-383 92 0
-92 383 0
-384 106 0
-106 384 0
-385 218 0
-218 385 0
-386 120 0
-120 386 0
-387 121 0
-121 387 0
-388 122 0
-122 388 0
-389 123 0
-123 389 0
-390 124 0
-124 390 0
-391 7 0
-7 391 0
-392 126 0
-126 392 0
-393 125 0
-125 393 0
-394 128 0
-128 394 0
-395 127 0
-127 395 0
-396 130 0
-130 396 0
-397 129 0
-129 397 0
-398 132 0
-132 398 0
-399 131 0
-131 399 0
-400 27 0
-27 400 0
-401 45 0
-45 401 0
-402 62 0
-62 402 0
-403 78 0
-78 403 0
-404 93 0
-93 404 0
-405 107 0
-107 405 0
-406 120 0
-120 406 0
-407 219 0
-219 407 0
-408 133 0
-133 408 0
-409 134 0
-134 409 0
-410 135 0
-135 410 0
-411 136 0
-136 411 0
-412 8 0
-8 412 0
-413 138 0
-138 413 0
-414 137 0
-137 414 0
-415 140 0
-140 415 0
-416 139 0
-139 416 0
-417 142 0
-142 417 0
-418 141 0
-141 418 0
-419 144 0
-144 419 0
-420 143 0
-143 420 0
-421 28 0
-28 421 0
-422 46 0
-46 422 0
-423 63 0
-63 423 0
-424 79 0
-79 424 0
-425 94 0
-94 425 0
-426 108 0
-108 426 0
-427 121 0
-121 427 0
-428 133 0
-133 428 0
-429 220 0
-220 429 0
-430 145 0
-145 430 0
-431 146 0
-146 431 0
-432 147 0
-147 432 0
-433 9 0
-9 433 0
-434 149 0
-149 434 0
-435 148 0
-148 435 0
-436 151 0
-151 436 0
-437 150 0
-150 437 0
-438 153 0
-153 438 0
-439 152 0
-152 439 0
-440 155 0
-155 440 0
-441 154 0
-154 441 0
-442 29 0
-29 442 0
-443 47 0
-47 443 0
-444 64 0
-64 444 0
-445 80 0
-80 445 0
-446 95 0
-95 446 0
-447 109 0
-109 447 0
-448 122 0
-122 448 0
-449 134 0
-134 449 0
-450 145 0
-145 450 0
-451 221 0
-221 451 0
-452 156 0
-156 452 0
-453 157 0
-157 453 0
-454 10 0
-10 454 0
-455 159 0
-159 455 0
-456 158 0
-158 456 0
-457 161 0
-161 457 0
-458 160 0
-160 458 0
-459 163 0
-163 459 0
-460 162 0
-162 460 0
-461 165 0
-165 461 0
-462 164 0
-164 462 0
-463 30 0
-30 463 0
-464 48 0
-48 464 0
-465 65 0
-65 465 0
-466 81 0
-81 466 0
-467 96 0
-96 467 0
-468 110 0
-110 468 0
-469 123 0
-123 469 0
-470 135 0
-135 470 0
-471 146 0
-146 471 0
-472 156 0
-156 472 0
-473 222 0
-222 473 0
-474 166 0
-166 474 0
-475 11 0
-11 475 0
-476 168 0
-168 476 0
-477 167 0
-167 477 0
-478 170 0
-170 478 0
-479 169 0
-169 479 0
-480 172 0
-172 480 0
-481 171 0
-171 481 0
-482 174 0
-174 482 0
-483 173 0
-173 483 0
-484 31 0
-31 484 0
-485 49 0
-49 485 0
-486 66 0
-66 486 0
-487 82 0
-82 487 0
-488 97 0
-97 488 0
-489 111 0
-111 489 0
-490 124 0
-124 490 0
-491 136 0
-136 491 0
-492 147 0
-147 492 0
-493 157 0
-157 493 0
-494 166 0
-166 494 0
-495 223 0
-223 495 0
-496 12 0
-12 496 0
-497 176 0
-176 497 0
-498 175 0
-175 498 0
-499 178 0
-178 499 0
-500 177 0
-177 500 0
-501 180 0
-180 501 0
-502 179 0
-179 502 0
-503 182 0
-182 503 0
-504 181 0
-181 504 0
-505 32 0
-32 505 0
-506 50 0
-50 506 0
-507 67 0
-67 507 0
-508 83 0
-83 508 0
-509 98 0
-98 509 0
-510 112 0
-112 510 0
-511 125 0
-125 511 0
-512 137 0
-137 512 0
-513 148 0
-148 513 0
-514 158 0
-158 514 0
-515 167 0
-167 515 0
-516 175 0
-175 516 0
-517 13 0
-13 517 0
-518 183 0
-183 518 0
-519 224 0
-224 519 0
-520 185 0
-185 520 0
-521 184 0
-184 521 0
-522 187 0
-187 522 0
-523 186 0
-186 523 0
-524 189 0
-189 524 0
-525 188 0
-188 525 0
-526 33 0
-33 526 0
-527 51 0
-51 527 0
-528 68 0
-68 528 0
-529 84 0
-84 529 0
-530 99 0
-99 530 0
-531 113 0
-113 531 0
-532 126 0
-126 532 0
-533 138 0
-138 533 0
-534 149 0
-149 534 0
-535 159 0
-159 535 0
-536 168 0
-168 536 0
-537 176 0
-176 537 0
-538 14 0
-14 538 0
-539 225 0
-225 539 0
-540 183 0
-183 540 0
-541 191 0
-191 541 0
-542 190 0
-190 542 0
-543 193 0
-193 543 0
-544 192 0
-192 544 0
-545 195 0
-195 545 0
-546 194 0
-194 546 0
-547 34 0
-34 547 0
-548 52 0
-52 548 0
-549 69 0
-69 549 0
-550 85 0
-85 550 0
-551 100 0
-100 551 0
-552 114 0
-114 552 0
-553 127 0
-127 553 0
-554 139 0
-139 554 0
-555 150 0
-150 555 0
-556 160 0
-160 556 0
-557 169 0
-169 557 0
-558 177 0
-177 558 0
-559 15 0
-15 559 0
-560 190 0
-190 560 0
-561 184 0
-184 561 0
-562 196 0
-196 562 0
-563 226 0
-226 563 0
-564 198 0
-198 564 0
-565 197 0
-197 565 0
-566 200 0
-200 566 0
-567 199 0
-199 567 0
-568 35 0
-35 568 0
-569 53 0
-53 569 0
-570 70 0
-70 570 0
-571 86 0
-86 571 0
-572 101 0
-101 572 0
-573 115 0
-115 573 0
-574 128 0
-128 574 0
-575 140 0
-140 575 0
-576 151 0
-151 576 0
-577 161 0
-161 577 0
-578 170 0
-170 578 0
-579 178 0
-178 579 0
-580 16 0
-16 580 0
-581 191 0
-191 581 0
-582 185 0
-185 582 0
-583 227 0
-227 583 0
-584 196 0
-196 584 0
-585 202 0
-202 585 0
-586 201 0
-201 586 0
-587 204 0
-204 587 0
-588 203 0
-203 588 0
-589 36 0
-36 589 0
-590 54 0
-54 590 0
-591 71 0
-71 591 0
-592 87 0
-87 592 0
-593 102 0
-102 593 0
-594 116 0
-116 594 0
-595 129 0
-129 595 0
-596 141 0
-141 596 0
-597 152 0
-152 597 0
-598 162 0
-162 598 0
-599 171 0
-171 599 0
-600 179 0
-179 600 0
-601 17 0
-17 601 0
-602 192 0
-192 602 0
-603 186 0
-186 603 0
-604 201 0
-201 604 0
-605 197 0
-197 605 0
-606 205 0
-205 606 0
-607 228 0
-228 607 0
-608 207 0
-207 608 0
-609 206 0
-206 609 0
-610 37 0
-37 610 0
-611 55 0
-55 611 0
-612 72 0
-72 612 0
-613 88 0
-88 613 0
-614 103 0
-103 614 0
-615 117 0
-117 615 0
-616 130 0
-130 616 0
-617 142 0
-142 617 0
-618 153 0
-153 618 0
-619 163 0
-163 619 0
-620 172 0
-172 620 0
-621 180 0
-180 621 0
-622 18 0
-18 622 0
-623 193 0
-193 623 0
-624 187 0
-187 624 0
-625 202 0
-202 625 0
-626 198 0
-198 626 0
-627 229 0
-229 627 0
-628 205 0
-205 628 0
-629 209 0
-209 629 0
-630 208 0
-208 630 0
-631 38 0
-38 631 0
-632 56 0
-56 632 0
-633 73 0
-73 633 0
-634 89 0
-89 634 0
-635 104 0
-104 635 0
-636 118 0
-118 636 0
-637 131 0
-131 637 0
-638 143 0
-143 638 0
-639 154 0
-154 639 0
-640 164 0
-164 640 0
-641 173 0
-173 641 0
-642 181 0
-181 642 0
-643 19 0
-19 643 0
-644 194 0
-194 644 0
-645 188 0
-188 645 0
-646 203 0
-203 646 0
-647 199 0
-199 647 0
-648 208 0
-208 648 0
-649 206 0
-206 649 0
-650 210 0
-210 650 0
-651 230 0
-230 651 0
-652 39 0
-39 652 0
-653 57 0
-57 653 0
-654 74 0
-74 654 0
-655 90 0
-90 655 0
-656 105 0
-105 656 0
-657 119 0
-119 657 0
-658 132 0
-132 658 0
-659 144 0
-144 659 0
-660 155 0
-155 660 0
-661 165 0
-165 661 0
-662 174 0
-174 662 0
-663 182 0
-182 663 0
-664 20 0
-20 664 0
-665 195 0
-195 665 0
-666 189 0
-189 666 0
-667 204 0
-204 667 0
-668 200 0
-200 668 0
-669 209 0
-209 669 0
-670 207 0
-207 670 0
-671 231 0
-231 671 0
-672 210 0
-210 672 0
-232 -232 232 0
-232 -233 253 0
-232 -234 274 0
-232 -235 295 0
-232 -236 316 0
-232 -237 337 0
-232 -238 358 0
-232 -239 379 0
-232 -240 400 0
-232 -241 421 0
-232 -242 442 0
-232 -243 463 0
-232 -244 484 0
-232 -245 505 0
-232 -246 526 0
-232 -247 547 0
-232 -248 568 0
-232 -249 589 0
-232 -250 610 0
-232 -251 631 0
-232 -252 652 0
-233 -253 232 0
-233 -254 253 0
-233 -255 274 0
-233 -256 295 0
-233 -257 316 0
-233 -258 337 0
-233 -259 358 0
-233 -260 379 0
-233 -261 400 0
-233 -262 421 0
-233 -263 442 0
-233 -264 463 0
-233 -265 484 0
-233 -266 505 0
-233 -267 526 0
-233 -268 547 0
-233 -269 568 0
-233 -270 589 0
-233 -271 610 0
-233 -272 631 0
-233 -273 652 0
-234 -274 232 0
-234 -275 253 0
-234 -276 274 0
-234 -277 295 0
-234 -278 316 0
-234 -279 337 0
-234 -280 358 0
-234 -281 379 0
-234 -282 400 0
-234 -283 421 0
-234 -284 442 0
-234 -285 463 0
-234 -286 484 0
-234 -287 505 0
-234 -288 526 0
-234 -289 547 0
-234 -290 568 0
-234 -291 589 0
-234 -292 610 0
-234 -293 631 0
-234 -294 652 0
-235 -295 232 0
-235 -296 253 0
-235 -297 274 0
-235 -298 295 0
-235 -299 316 0
-235 -300 337 0
-235 -301 358 0
-235 -302 379 0
-235 -303 400 0
-235 -304 421 0
-235 -305 442 0
-235 -306 463 0
-235 -307 484 0
-235 -308 505 0
-235 -309 526 0
-235 -310 547 0
-235 -311 568 0
-235 -312 589 0
-235 -313 610 0
-235 -314 631 0
-235 -315 652 0
-236 -316 232 0
-236 -317 253 0
-236 -318 274 0
-236 -319 295 0
-236 -320 316 0
-236 -321 337 0
-236 -322 358 0
-236 -323 379 0
-236 -324 400 0
-236 -325 421 0
-236 -326 442 0
-236 -327 463 0
-236 -328 484 0
-236 -329 505 0
-236 -330 526 0
-236 -331 547 0
-236 -332 568 0
-236 -333 589 0
-236 -334 610 0
-236 -335 631 0
-236 -336 652 0
-237 -337 232 0
-237 -338 253 0
-237 -339 274 0
-237 -340 295 0
-237 -341 316 0
-237 -342 337 0
-237 -343 358 0
-237 -344 379 0
-237 -345 400 0
-237 -346 421 0
-237 -347 442 0
-237 -348 463 0
-237 -349 484 0
-237 -350 505 0
-237 -351 526 0
-237 -352 547 0
-237 -353 568 0
-237 -354 589 0
-237 -355 610 0
-237 -356 631 0
-237 -357 652 0
-238 -358 232 0
-238 -359 253 0
-238 -360 274 0
-238 -361 295 0
-238 -362 316 0
-238 -363 337 0
-238 -364 358 0
-238 -365 379 0
-238 -366 400 0
-238 -367 421 0
-238 -368 442 0
-238 -369 463 0
-238 -370 484 0
-238 -371 505 0
-238 -372 526 0
-238 -373 547 0
-238 -374 568 0
-238 -375 589 0
-238 -376 610 0
-238 -377 631 0
-238 -378 652 0
-239 -379 232 0
-239 -380 253 0
-239 -381 274 0
-239 -382 295 0
-239 -383 316 0
-239 -384 337 0
-239 -385 358 0
-239 -386 379 0
-239 -387 400 0
-239 -388 421 0
-239 -389 442 0
-239 -390 463 0
-239 -391 484 0
-239 -392 505 0
-239 -393 526 0
-239 -394 547 0
-239 -395 568 0
-239 -396 589 0
-239 -397 610 0
-239 -398 631 0
-239 -399 652 0
-240 -400 232 0
-240 -401 253 0
-240 -402 274 0
-240 -403 295 0
-240 -404 316 0
-240 -405 337 0
-240 -406 358 0
-240 -407 379 0
-240 -408 400 0
-240 -409 421 0
-240 -410 442 0
-240 -411 463 0
-240 -412 484 0
-240 -413 505 0
-240 -414 526 0
-240 -415 547 0
-240 -416 568 0
-240 -417 589 0
-240 -418 610 0
-240 -419 631 0
-240 -420 652 0
-241 -421 232 0
-241 -422 253 0
-241 -423 274 0
-241 -424 295 0
-241 -425 316 0
-241 -426 337 0
-241 -427 358 0
-241 -428 379 0
-241 -429 400 0
-241 -430 421 0
-241 -431 442 0
-241 -432 463 0
-241 -433 484 0
-241 -434 505 0
-241 -435 526 0
-241 -436 547 0
-241 -437 568 0
-241 -438 589 0
-241 -439 610 0
-241 -440 631 0
-241 -441 652 0
-242 -442 232 0
-242 -443 253 0
-242 -444 274 0
-242 -445 295 0
-242 -446 316 0
-242 -447 337 0
-242 -448 358 0
-242 -449 379 0
-242 -450 400 0
-242 -451 421 0
-242 -452 442 0
-242 -453 463 0
-242 -454 484 0
-242 -455 505 0
-242 -456 526 0
-242 -457 547 0
-242 -458 568 0
-242 -459 589 0
-242 -460 610 0
-242 -461 631 0
-242 -462 652 0
-243 -463 232 0
-243 -464 253 0
-243 -465 274 0
-243 -466 295 0
-243 -467 316 0
-243 -468 337 0
-243 -469 358 0
-243 -470 379 0
-243 -471 400 0
-243 -472 421 0
-243 -473 442 0
-243 -474 463 0
-243 -475 484 0
-243 -476 505 0
-243 -477 526 0
-243 -478 547 0
-243 -479 568 0
-243 -480 589 0
-243 -481 610 0
-243 -482 631 0
-243 -483 652 0
-244 -484 232 0
-244 -485 253 0
-244 -486 274 0
-244 -487 295 0
-244 -488 316 0
-244 -489 337 0
-244 -490 358 0
-244 -491 379 0
-244 -492 400 0
-244 -493 421 0
-244 -494 442 0
-244 -495 463 0
-244 -496 484 0
-244 -497 505 0
-244 -498 526 0
-244 -499 547 0
-244 -500 568 0
-244 -501 589 0
-244 -502 610 0
-244 -503 631 0
-244 -504 652 0
-245 -505 232 0
-245 -506 253 0
-245 -507 274 0
-245 -508 295 0
-245 -509 316 0
-245 -510 337 0
-245 -511 358 0
-245 -512 379 0
-245 -513 400 0
-245 -514 421 0
-245 -515 442 0
-245 -516 463 0
-245 -517 484 0
-245 -518 505 0
-245 -519 526 0
-245 -520 547 0
-245 -521 568 0
-245 -522 589 0
-245 -523 610 0
-245 -524 631 0
-245 -525 652 0
-246 -526 232 0
-246 -527 253 0
-246 -528 274 0
-246 -529 295 0
-246 -530 316 0
-246 -531 337 0
-246 -532 358 0
-246 -533 379 0
-246 -534 400 0
-246 -535 421 0
-246 -536 442 0
-246 -537 463 0
-246 -538 484 0
-246 -539 505 0
-246 -540 526 0
-246 -541 547 0
-246 -542 568 0
-246 -543 589 0
-246 -544 610 0
-246 -545 631 0
-246 -546 652 0
-247 -547 232 0
-247 -548 253 0
-247 -549 274 0
-247 -550 295 0
-247 -551 316 0
-247 -552 337 0
-247 -553 358 0
-247 -554 379 0
-247 -555 400 0
-247 -556 421 0
-247 -557 442 0
-247 -558 463 0
-247 -559 484 0
-247 -560 505 0
-247 -561 526 0
-247 -562 547 0
-247 -563 568 0
-247 -564 589 0
-247 -565 610 0
-247 -566 631 0
-247 -567 652 0
-248 -568 232 0
-248 -569 253 0
-248 -570 274 0
-248 -571 295 0
-248 -572 316 0
-248 -573 337 0
-248 -574 358 0
-248 -575 379 0
-248 -576 400 0
-248 -577 421 0
-248 -578 442 0
-248 -579 463 0
-248 -580 484 0
-248 -581 505 0
-248 -582 526 0
-248 -583 547 0
-248 -584 568 0
-248 -585 589 0
-248 -586 610 0
-248 -587 631 0
-248 -588 652 0
-249 -589 232 0
-249 -590 253 0
-249 -591 274 0
-249 -592 295 0
-249 -593 316 0
-249 -594 337 0
-249 -595 358 0
-249 -596 379 0
-249 -597 400 0
-249 -598 421 0
-249 -599 442 0
-249 -600 463 0
-249 -601 484 0
-249 -602 505 0
-249 -603 526 0
-249 -604 547 0
-249 -605 568 0
-249 -606 589 0
-249 -607 610 0
-249 -608 631 0
-249 -609 652 0
-250 -610 232 0
-250 -611 253 0
-250 -612 274 0
-250 -613 295 0
-250 -614 316 0
-250 -615 337 0
-250 -616 358 0
-250 -617 379 0
-250 -618 400 0
-250 -619 421 0
-250 -620 442 0
-250 -621 463 0
-250 -622 484 0
-250 -623 505 0
-250 -624 526 0
-250 -625 547 0
-250 -626 568 0
-250 -627 589 0
-250 -628 610 0
-250 -629 631 0
-250 -630 652 0
-251 -631 232 0
-251 -632 253 0
-251 -633 274 0
-251 -634 295 0
-251 -635 316 0
-251 -636 337 0
-251 -637 358 0
-251 -638 379 0
-251 -639 400 0
-251 -640 421 0
-251 -641 442 0
-251 -642 463 0
-251 -643 484 0
-251 -644 505 0
-251 -645 526 0
-251 -646 547 0
-251 -647 568 0
-251 -648 589 0
-251 -649 610 0
-251 -650 631 0
-251 -651 652 0
-252 -652 232 0
-252 -653 253 0
-252 -654 274 0
-252 -655 295 0
-252 -656 316 0
-252 -657 337 0
-252 -658 358 0
-252 -659 379 0
-252 -660 400 0
-252 -661 421 0
-252 -662 442 0
-252 -663 463 0
-252 -664 484 0
-252 -665 505 0
-252 -666 526 0
-252 -667 547 0
-252 -668 568 0
-252 -669 589 0
-252 -670 610 0
-252 -671 631 0
-252 -672 652 0
-253 -232 233 0
-253 -233 254 0
-253 -234 275 0
-253 -235 296 0
-253 -236 317 0
-253 -237 338 0
-253 -238 359 0
-253 -239 380 0
-253 -240 401 0
-253 -241 422 0
-253 -242 443 0
-253 -243 464 0
-253 -244 485 0
-253 -245 506 0
-253 -246 527 0
-253 -247 548 0
-253 -248 569 0
-253 -249 590 0
-253 -250 611 0
-253 -251 632 0
-253 -252 653 0
-254 -253 233 0
-254 -254 254 0
-254 -255 275 0
-254 -256 296 0
-254 -257 317 0
-254 -258 338 0
-254 -259 359 0
-254 -260 380 0
-254 -261 401 0
-254 -262 422 0
-254 -263 443 0
-254 -264 464 0
-254 -265 485 0
-254 -266 506 0
-254 -267 527 0
-254 -268 548 0
-254 -269 569 0
-254 -270 590 0
-254 -271 611 0
-254 -272 632 0
-254 -273 653 0
-255 -274 233 0
-255 -275 254 0
-255 -276 275 0
-255 -277 296 0
-255 -278 317 0
-255 -279 338 0
-255 -280 359 0
-255 -281 380 0
-255 -282 401 0
-255 -283 422 0
-255 -284 443 0
-255 -285 464 0
-255 -286 485 0
-255 -287 506 0
-255 -288 527 0
-255 -289 548 0
-255 -290 569 0
-255 -291 590 0
-255 -292 611 0
-255 -293 632 0
-255 -294 653 0
-256 -295 233 0
-256 -296 254 0
-256 -297 275 0
-256 -298 296 0
-256 -299 317 0
-256 -300 338 0
-256 -301 359 0
-256 -302 380 0
-256 -303 401 0
-256 -304 422 0
-256 -305 443 0
-256 -306 464 0
-256 -307 485 0
-256 -308 506 0
-256 -309 527 0
-256 -310 548 0
-256 -311 569 0
-256 -312 590 0
-256 -313 611 0
-256 -314 632 0
-256 -315 653 0
-257 -316 233 0
-257 -317 254 0
-257 -318 275 0
-257 -319 296 0
-257 -320 317 0
-257 -321 338 0
-257 -322 359 0
-257 -323 380 0
-257 -324 401 0
-257 -325 422 0
-257 -326 443 0
-257 -327 464 0
-257 -328 485 0
-257 -329 506 0
-257 -330 527 0
-257 -331 548 0
-257 -332 569 0
-257 -333 590 0
-257 -334 611 0
-257 -335 632 0
-257 -336 653 0
-258 -337 233 0
-258 -338 254 0
-258 -339 275 0
-258 -340 296 0
-258 -341 317 0
-258 -342 338 0
-258 -343 359 0
-258 -344 380 0
-258 -345 401 0
-258 -346 422 0
-258 -347 443 0
-258 -348 464 0
-258 -349 485 0
-258 -350 506 0
-258 -351 527 0
-258 -352 548 0
-258 -353 569 0
-258 -354 590 0
-258 -355 611 0
-258 -356 632 0
-258 -357 653 0
-259 -358 233 0
-259 -359 254 0
-259 -360 275 0
-259 -361 296 0
-259 -362 317 0
-259 -363 338 0
-259 -364 359 0
-259 -365 380 0
-259 -366 401 0
-259 -367 422 0
-259 -368 443 0
-259 -369 464 0
-259 -370 485 0
-259 -371 506 0
-259 -372 527 0
-259 -373 548 0
-259 -374 569 0
-259 -375 590 0
-259 -376 611 0
-259 -377 632 0
-259 -378 653 0
-260 -379 233 0
-260 -380 254 0
-260 -381 275 0
-260 -382 296 0
-260 -383 317 0
-260 -384 338 0
-260 -385 359 0
-260 -386 380 0
-260 -387 401 0
-260 -388 422 0
-260 -389 443 0
-260 -390 464 0
-260 -391 485 0
-260 -392 506 0
-260 -393 527 0
-260 -394 548 0
-260 -395 569 0
-260 -396 590 0
-260 -397 611 0
-260 -398 632 0
-260 -399 653 0
-261 -400 233 0
-261 -401 254 0
-261 -402 275 0
-261 -403 296 0
-261 -404 317 0
-261 -405 338 0
-261 -406 359 0
-261 -407 380 0
-261 -408 401 0
-261 -409 422 0
-261 -410 443 0
-261 -411 464 0
-261 -412 485 0
-261 -413 506 0
-261 -414 527 0
-261 -415 548 0
-261 -416 569 0
-261 -417 590 0
-261 -418 611 0
-261 -419 632 0
-261 -420 653 0
-262 -421 233 0
-262 -422 254 0
-262 -423 275 0
-262 -424 296 0
-262 -425 317 0
-262 -426 338 0
-262 -427 359 0
-262 -428 380 0
-262 -429 401 0
-262 -430 422 0
-262 -431 443 0
-262 -432 464 0
-262 -433 485 0
-262 -434 506 0
-262 -435 527 0
-262 -436 548 0
-262 -437 569 0
-262 -438 590 0
-262 -439 611 0
-262 -440 632 0
-262 -441 653 0
-263 -442 233 0
-263 -443 254 0
-263 -444 275 0
-263 -445 296 0
-263 -446 317 0
-263 -447 338 0
-263 -448 359 0
-263 -449 380 0
-263 -450 401 0
-263 -451 422 0
-263 -452 443 0
-263 -453 464 0
-263 -454 485 0
-263 -455 506 0
-263 -456 527 0
-263 -457 548 0
-263 -458 569 0
-263 -459 590 0
-263 -460 611 0
-263 -461 632 0
-263 -462 653 0
-264 -463 233 0
-264 -464 254 0
-264 -465 275 0
-264 -466 296 0
-264 -467 317 0
-264 -468 338 0
-264 -469 359 0
-264 -470 380 0
-264 -471 401 0
-264 -472 422 0
-264 -473 443 0
-264 -474 464 0
-264 -475 485 0
-264 -476 506 0
-264 -477 527 0
-264 -478 548 0
-264 -479 569 0
-264 -480 590 0
-264 -481 611 0
-264 -482 632 0
-264 -483 653 0
-265 -484 233 0
-265 -485 254 0
-265 -486 275 0
-265 -487 296 0
-265 -488 317 0
-265 -489 338 0
-265 -490 359 0
-265 -491 380 0
-265 -492 401 0
-265 -493 422 0
-265 -494 443 0
-265 -495 464 0
-265 -496 485 0
-265 -497 506 0
-265 -498 527 0
-265 -499 548 0
-265 -500 569 0
-265 -501 590 0
-265 -502 611 0
-265 -503 632 0
-265 -504 653 0
-266 -505 233 0
-266 -506 254 0
-266 -507 275 0
-266 -508 296 0
-266 -509 317 0
-266 -510 338 0
-266 -511 359 0
-266 -512 380 0
-266 -513 401 0
-266 -514 422 0
-266 -515 443 0
-266 -516 464 0
-266 -517 485 0
-266 -518 506 0
-266 -519 527 0
-266 -520 548 0
-266 -521 569 0
-266 -522 590 0
-266 -523 611 0
-266 -524 632 0
-266 -525 653 0
-267 -526 233 0
-267 -527 254 0
-267 -528 275 0
-267 -529 296 0
-267 -530 317 0
-267 -531 338 0
-267 -532 359 0
-267 -533 380 0
-267 -534 401 0
-267 -535 422 0
-267 -536 443 0
-267 -537 464 0
-267 -538 485 0
-267 -539 506 0
-267 -540 527 0
-267 -541 548 0
-267 -542 569 0
-267 -543 590 0
-267 -544 611 0
-267 -545 632 0
-267 -546 653 0
-268 -547 233 0
-268 -548 254 0
-268 -549 275 0
-268 -550 296 0
-268 -551 317 0
-268 -552 338 0
-268 -553 359 0
-268 -554 380 0
-268 -555 401 0
-268 -556 422 0
-268 -557 443 0
-268 -558 464 0
-268 -559 485 0
-268 -560 506 0
-268 -561 527 0
-268 -562 548 0
-268 -563 569 0
-268 -564 590 0
-268 -565 611 0
-268 -566 632 0
-268 -567 653 0
-269 -568 233 0
-269 -569 254 0
-269 -570 275 0
-269 -571 296 0
-269 -572 317 0
-269 -573 338 0
-269 -574 359 0
-269 -575 380 0
-269 -576 401 0
-269 -577 422 0
-269 -578 443 0
-269 -579 464 0
-269 -580 485 0
-269 -581 506 0
-269 -582 527 0
-269 -583 548 0
-269 -584 569 0
-269 -585 590 0
-269 -586 611 0
-269 -587 632 0
-269 -588 653 0
-270 -589 233 0
-270 -590 254 0
-270 -591 275 0
-270 -592 296 0
-270 -593 317 0
-270 -594 338 0
-270 -595 359 0
-270 -596 380 0
-270 -597 401 0
-270 -598 422 0
-270 -599 443 0
-270 -600 464 0
-270 -601 485 0
-270 -602 506 0
-270 -603 527 0
-270 -604 548 0
-270 -605 569 0
-270 -606 590 0
-270 -607 611 0
-270 -608 632 0
-270 -609 653 0
-271 -610 233 0
-271 -611 254 0
-271 -612 275 0
-271 -613 296 0
-271 -614 317 0
-271 -615 338 0
-271 -616 359 0
-271 -617 380 0
-271 -618 401 0
-271 -619 422 0
-271 -620 443 0
-271 -621 464 0
-271 -622 485 0
-271 -623 506 0
-271 -624 527 0
-271 -625 548 0
-271 -626 569 0
-271 -627 590 0
-271 -628 611 0
-271 -629 632 0
-271 -630 653 0
-272 -631 233 0
-272 -632 254 0
-272 -633 275 0
-272 -634 296 0
-272 -635 317 0
-272 -636 338 0
-272 -637 359 0
-272 -638 380 0
-272 -639 401 0
-272 -640 422 0
-272 -641 443 0
-272 -642 464 0
-272 -643 485 0
-272 -644 506 0
-272 -645 527 0
-272 -646 548 0
-272 -647 569 0
-272 -648 590 0
-272 -649 611 0
-272 -650 632 0
-272 -651 653 0
-273 -652 233 0
-273 -653 254 0
-273 -654 275 0
-273 -655 296 0
-273 -656 317 0
-273 -657 338 0
-273 -658 359 0
-273 -659 380 0
-273 -660 401 0
-273 -661 422 0
-273 -662 443 0
-273 -663 464 0
-273 -664 485 0
-273 -665 506 0
-273 -666 527 0
-273 -667 548 0
-273 -668 569 0
-273 -669 590 0
-273 -670 611 0
-273 -671 632 0
-273 -672 653 0
-274 -232 234 0
-274 -233 255 0
-274 -234 276 0
-274 -235 297 0
-274 -236 318 0
-274 -237 339 0
-274 -238 360 0
-274 -239 381 0
-274 -240 402 0
-274 -241 423 0
-274 -242 444 0
-274 -243 465 0
-274 -244 486 0
-274 -245 507 0
-274 -246 528 0
-274 -247 549 0
-274 -248 570 0
-274 -249 591 0
-274 -250 612 0
-274 -251 633 0
-274 -252 654 0
-275 -253 234 0
-275 -254 255 0
-275 -255 276 0
-275 -256 297 0
-275 -257 318 0
-275 -258 339 0
-275 -259 360 0
-275 -260 381 0
-275 -261 402 0
-275 -262 423 0
-275 -263 444 0
-275 -264 465 0
-275 -265 486 0
-275 -266 507 0
-275 -267 528 0
-275 -268 549 0
-275 -269 570 0
-275 -270 591 0
-275 -271 612 0
-275 -272 633 0
-275 -273 654 0
-276 -274 234 0
-276 -275 255 0
-276 -276 276 0
-276 -277 297 0
-276 -278 318 0
-276 -279 339 0
-276 -280 360 0
-276 -281 381 0
-276 -282 402 0
-276 -283 423 0
-276 -284 444 0
-276 -285 465 0
-276 -286 486 0
-276 -287 507 0
-276 -288 528 0
-276 -289 549 0
-276 -290 570 0
-276 -291 591 0
-276 -292 612 0
-276 -293 633 0
-276 -294 654 0
-277 -295 234 0
-277 -296 255 0
-277 -297 276 0
-277 -298 297 0
-277 -299 318 0
-277 -300 339 0
-277 -301 360 0
-277 -302 381 0
-277 -303 402 0
-277 -304 423 0
-277 -305 444 0
-277 -306 465 0
-277 -307 486 0
-277 -308 507 0
-277 -309 528 0
-277 -310 549 0
-277 -311 570 0
-277 -312 591 0
-277 -313 612 0
-277 -314 633 0
-277 -315 654 0
-278 -316 234 0
-278 -317 255 0
-278 -318 276 0
-278 -319 297 0
-278 -320 318 0
-278 -321 339 0
-278 -322 360 0
-278 -323 381 0
-278 -324 402 0
-278 -325 423 0
-278 -326 444 0
-278 -327 465 0
-278 -328 486 0
-278 -329 507 0
-278 -330 528 0
-278 -331 549 0
-278 -332 570 0
-278 -333 591 0
-278 -334 612 0
-278 -335 633 0
-278 -336 654 0
-279 -337 234 0
-279 -338 255 0
-279 -339 276 0
-279 -340 297 0
-279 -341 318 0
-279 -342 339 0
-279 -343 360 0
-279 -344 381 0
-279 -345 402 0
-279 -346 423 0
-279 -347 444 0
-279 -348 465 0
-279 -349 486 0
-279 -350 507 0
-279 -351 528 0
-279 -352 549 0
-279 -353 570 0
-279 -354 591 0
-279 -355 612 0
-279 -356 633 0
-279 -357 654 0
-280 -358 234 0
-280 -359 255 0
-280 -360 276 0
-280 -361 297 0
-280 -362 318 0
-280 -363 339 0
-280 -364 360 0
-280 -365 381 0
-280 -366 402 0
-280 -367 423 0
-280 -368 444 0
-280 -369 465 0
-280 -370 486 0
-280 -371 507 0
-280 -372 528 0
-280 -373 549 0
-280 -374 570 0
-280 -375 591 0
-280 -376 612 0
-280 -377 633 0
-280 -378 654 0
-281 -379 234 0
-281 -380 255 0
-281 -381 276 0
-281 -382 297 0
-281 -383 318 0
-281 -384 339 0
-281 -385 360 0
-281 -386 381 0
-281 -387 402 0
-281 -388 423 0
-281 -389 444 0
-281 -390 465 0
-281 -391 486 0
-281 -392 507 0
-281 -393 528 0
-281 -394 549 0
-281 -395 570 0
-281 -396 591 0
-281 -397 612 0
-281 -398 633 0
-281 -399 654 0
-282 -400 234 0
-282 -401 255 0
-282 -402 276 0
-282 -403 297 0
-282 -404 318 0
-282 -405 339 0
-282 -406 360 0
-282 -407 381 0
-282 -408 402 0
-282 -409 423 0
-282 -410 444 0
-282 -411 465 0
-282 -412 486 0
-282 -413 507 0
-282 -414 528 0
-282 -415 549 0
-282 -416 570 0
-282 -417 591 0
-282 -418 612 0
-282 -419 633 0
-282 -420 654 0
-283 -421 234 0
-283 -422 255 0
-283 -423 276 0
-283 -424 297 0
-283 -425 318 0
-283 -426 339 0
-283 -427 360 0
-283 -428 381 0
-283 -429 402 0
-283 -430 423 0
-283 -431 444 0
-283 -432 465 0
-283 -433 486 0
-283 -434 507 0
-283 -435 528 0
-283 -436 549 0
-283 -437 570 0
-283 -438 591 0
-283 -439 612 0
-283 -440 633 0
-283 -441 654 0
-284 -442 234 0
-284 -443 255 0
-284 -444 276 0
-284 -445 297 0
-284 -446 318 0
-284 -447 339 0
-284 -448 360 0
-284 -449 381 0
-284 -450 402 0
-284 -451 423 0
-284 -452 444 0
-284 -453 465 0
-284 -454 486 0
-284 -455 507 0
-284 -456 528 0
-284 -457 549 0
-284 -458 570 0
-284 -459 591 0
-284 -460 612 0
-284 -461 633 0
-284 -462 654 0
-285 -463 234 0
-285 -464 255 0
-285 -465 276 0
-285 -466 297 0
-285 -467 318 0
-285 -468 339 0
-285 -469 360 0
-285 -470 381 0
-285 -471 402 0
-285 -472 423 0
-285 -473 444 0
-285 -474 465 0
-285 -475 486 0
-285 -476 507 0
-285 -477 528 0
-285 -478 549 0
-285 -479 570 0
-285 -480 591 0
-285 -481 612 0
-285 -482 633 0
-285 -483 654 0
-286 -484 234 0
-286 -485 255 0
-286 -486 276 0
-286 -487 297 0
-286 -488 318 0
-286 -489 339 0
-286 -490 360 0
-286 -491 381 0
-286 -492 402 0
-286 -493 423 0
-286 -494 444 0
-286 -495 465 0
-286 -496 486 0
-286 -497 507 0
-286 -498 528 0
-286 -499 549 0
-286 -500 570 0
-286 -501 591 0
-286 -502 612 0
-286 -503 633 0
-286 -504 654 0
-287 -505 234 0
-287 -506 255 0
-287 -507 276 0
-287 -508 297 0
-287 -509 318 0
-287 -510 339 0
-287 -511 360 0
-287 -512 381 0
-287 -513 402 0
-287 -514 423 0
-287 -515 444 0
-287 -516 465 0
-287 -517 486 0
-287 -518 507 0
-287 -519 528 0
-287 -520 549 0
-287 -521 570 0
-287 -522 591 0
-287 -523 612 0
-287 -524 633 0
-287 -525 654 0
-288 -526 234 0
-288 -527 255 0
-288 -528 276 0
-288 -529 297 0
-288 -530 318 0
-288 -531 339 0
-288 -532 360 0
-288 -533 381 0
-288 -534 402 0
-288 -535 423 0
-288 -536 444 0
-288 -537 465 0
-288 -538 486 0
-288 -539 507 0
-288 -540 528 0
-288 -541 549 0
-288 -542 570 0
-288 -543 591 0
-288 -544 612 0
-288 -545 633 0
-288 -546 654 0
-289 -547 234 0
-289 -548 255 0
-289 -549 276 0
-289 -550 297 0
-289 -551 318 0
-289 -552 339 0
-289 -553 360 0
-289 -554 381 0
-289 -555 402 0
-289 -556 423 0
-289 -557 444 0
-289 -558 465 0
-289 -559 486 0
-289 -560 507 0
-289 -561 528 0
-289 -562 549 0
-289 -563 570 0
-289 -564 591 0
-289 -565 612 0
-289 -566 633 0
-289 -567 654 0
-290 -568 234 0
-290 -569 255 0
-290 -570 276 0
-290 -571 297 0
-290 -572 318 0
-290 -573 339 0
-290 -574 360 0
-290 -575 381 0
-290 -576 402 0
-290 -577 423 0
-290 -578 444 0
-290 -579 465 0
-290 -580 486 0
-290 -581 507 0
-290 -582 528 0
-290 -583 549 0
-290 -584 570 0
-290 -585 591 0
-290 -586 612 0
-290 -587 633 0
-290 -588 654 0
-291 -589 234 0
-291 -590 255 0
-291 -591 276 0
-291 -592 297 0
-291 -593 318 0
-291 -594 339 0
-291 -595 360 0
-291 -596 381 0
-291 -597 402 0
-291 -598 423 0
-291 -599 444 0
-291 -600 465 0
-291 -601 486 0
-291 -602 507 0
-291 -603 528 0
-291 -604 549 0
-291 -605 570 0
-291 -606 591 0
-291 -607 612 0
-291 -608 633 0
-291 -609 654 0
-292 -610 234 0
-292 -611 255 0
-292 -612 276 0
-292 -613 297 0
-292 -614 318 0
-292 -615 339 0
-292 -616 360 0
-292 -617 381 0
-292 -618 402 0
-292 -619 423 0
-292 -620 444 0
-292 -621 465 0
-292 -622 486 0
-292 -623 507 0
-292 -624 528 0
-292 -625 549 0
-292 -626 570 0
-292 -627 591 0
-292 -628 612 0
-292 -629 633 0
-292 -630 654 0
-293 -631 234 0
-293 -632 255 0
-293 -633 276 0
-293 -634 297 0
-293 -635 318 0
-293 -636 339 0
-293 -637 360 0
-293 -638 381 0
-293 -639 402 0
-293 -640 423 0
-293 -641 444 0
-293 -642 465 0
-293 -643 486 0
-293 -644 507 0
-293 -645 528 0
-293 -646 549 0
-293 -647 570 0
-293 -648 591 0
-293 -649 612 0
-293 -650 633 0
-293 -651 654 0
-294 -652 234 0
-294 -653 255 0
-294 -654 276 0
-294 -655 297 0
-294 -656 318 0
-294 -657 339 0
-294 -658 360 0
-294 -659 381 0
-294 -660 402 0
-294 -661 423 0
-294 -662 444 0
-294 -663 465 0
-294 -664 486 0
-294 -665 507 0
-294 -666 528 0
-294 -667 549 0
-294 -668 570 0
-294 -669 591 0
-294 -670 612 0
-294 -671 633 0
-294 -672 654 0
-295 -232 235 0
-295 -233 256 0
-295 -234 277 0
-295 -235 298 0
-295 -236 319 0
-295 -237 340 0
-295 -238 361 0
-295 -239 382 0
-295 -240 403 0
-295 -241 424 0
-295 -242 445 0
-295 -243 466 0
-295 -244 487 0
-295 -245 508 0
-295 -246 529 0
-295 -247 550 0
-295 -248 571 0
-295 -249 592 0
-295 -250 613 0
-295 -251 634 0
-295 -252 655 0
-296 -253 235 0
-296 -254 256 0
-296 -255 277 0
-296 -256 298 0
-296 -257 319 0
-296 -258 340 0
-296 -259 361 0
-296 -260 382 0
-296 -261 403 0
-296 -262 424 0
-296 -263 445 0
-296 -264 466 0
-296 -265 487 0
-296 -266 508 0
-296 -267 529 0
-296 -268 550 0
-296 -269 571 0
-296 -270 592 0
-296 -271 613 0
-296 -272 634 0
-296 -273 655 0
-297 -274 235 0
-297 -275 256 0
-297 -276 277 0
-297 -277 298 0
-297 -278 319 0
-297 -279 340 0
-297 -280 361 0
-297 -281 382 0
-297 -282 403 0
-297 -283 424 0
-297 -284 445 0
-297 -285 466 0
-297 -286 487 0
-297 -287 508 0
-297 -288 529 0
-297 -289 550 0
-297 -290 571 0
-297 -291 592 0
-297 -292 613 0
-297 -293 634 0
-297 -294 655 0
-298 -295 235 0
-298 -296 256 0
-298 -297 277 0
-298 -298 298 0
-298 -299 319 0
-298 -300 340 0
-298 -301 361 0
-298 -302 382 0
-298 -303 403 0
-298 -304 424 0
-298 -305 445 0
-298 -306 466 0
-298 -307 487 0
-298 -308 508 0
-298 -309 529 0
-298 -310 550 0
-298 -311 571 0
-298 -312 592 0
-298 -313 613 0
-298 -314 634 0
-298 -315 655 0
-299 -316 235 0
-299 -317 256 0
-299 -318 277 0
-299 -319 298 0
-299 -320 319 0
-299 -321 340 0
-299 -322 361 0
-299 -323 382 0
-299 -324 403 0
-299 -325 424 0
-299 -326 445 0
-299 -327 466 0
-299 -328 487 0
-299 -329 508 0
-299 -330 529 0
-299 -331 550 0
-299 -332 571 0
-299 -333 592 0
-299 -334 613 0
-299 -335 634 0
-299 -336 655 0
-300 -337 235 0
-300 -338 256 0
-300 -339 277 0
-300 -340 298 0
-300 -341 319 0
-300 -342 340 0
-300 -343 361 0
-300 -344 382 0
-300 -345 403 0
-300 -346 424 0
-300 -347 445 0
-300 -348 466 0
-300 -349 487 0
-300 -350 508 0
-300 -351 529 0
-300 -352 550 0
-300 -353 571 0
-300 -354 592 0
-300 -355 613 0
-300 -356 634 0
-300 -357 655 0
-301 -358 235 0
-301 -359 256 0
-301 -360 277 0
-301 -361 298 0
-301 -362 319 0
-301 -363 340 0
-301 -364 361 0
-301 -365 382 0
-301 -366 403 0
-301 -367 424 0
-301 -368 445 0
-301 -369 466 0
-301 -370 487 0
-301 -371 508 0
-301 -372 529 0
-301 -373 550 0
-301 -374 571 0
-301 -375 592 0
-301 -376 613 0
-301 -377 634 0
-301 -378 655 0
-302 -379 235 0
-302 -380 256 0
-302 -381 277 0
-302 -382 298 0
-302 -383 319 0
-302 -384 340 0
-302 -385 361 0
-302 -386 382 0
-302 -387 403 0
-302 -388 424 0
-302 -389 445 0
-302 -390 466 0
-302 -391 487 0
-302 -392 508 0
-302 -393 529 0
-302 -394 550 0
-302 -395 571 0
-302 -396 592 0
-302 -397 613 0
-302 -398 634 0
-302 -399 655 0
-303 -400 235 0
-303 -401 256 0
-303 -402 277 0
-303 -403 298 0
-303 -404 319 0
-303 -405 340 0
-303 -406 361 0
-303 -407 382 0
-303 -408 403 0
-303 -409 424 0
-303 -410 445 0
-303 -411 466 0
-303 -412 487 0
-303 -413 508 0
-303 -414 529 0
-303 -415 550 0
-303 -416 571 0
-303 -417 592 0
-303 -418 613 0
-303 -419 634 0
-303 -420 655 0
-304 -421 235 0
-304 -422 256 0
-304 -423 277 0
-304 -424 298 0
-304 -425 319 0
-304 -426 340 0
-304 -427 361 0
-304 -428 382 0
-304 -429 403 0
-304 -430 424 0
-304 -431 445 0
-304 -432 466 0
-304 -433 487 0
-304 -434 508 0
-304 -435 529 0
-304 -436 550 0
-304 -437 571 0
-304 -438 592 0
-304 -439 613 0
-304 -440 634 0
-304 -441 655 0
-305 -442 235 0
-305 -443 256 0
-305 -444 277 0
-305 -445 298 0
-305 -446 319 0
-305 -447 340 0
-305 -448 361 0
-305 -449 382 0
-305 -450 403 0
-305 -451 424 0
-305 -452 445 0
-305 -453 466 0
-305 -454 487 0
-305 -455 508 0
-305 -456 529 0
-305 -457 550 0
-305 -458 571 0
-305 -459 592 0
-305 -460 613 0
-305 -461 634 0
-305 -462 655 0
-306 -463 235 0
-306 -464 256 0
-306 -465 277 0
-306 -466 298 0
-306 -467 319 0
-306 -468 340 0
-306 -469 361 0
-306 -470 382 0
-306 -471 403 0
-306 -472 424 0
-306 -473 445 0
-306 -474 466 0
-306 -475 487 0
-306 -476 508 0
-306 -477 529 0
-306 -478 550 0
-306 -479 571 0
-306 -480 592 0
-306 -481 613 0
-306 -482 634 0
-306 -483 655 0
-307 -484 235 0
-307 -485 256 0
-307 -486 277 0
-307 -487 298 0
-307 -488 319 0
-307 -489 340 0
-307 -490 361 0
-307 -491 382 0
-307 -492 403 0
-307 -493 424 0
-307 -494 445 0
-307 -495 466 0
-307 -496 487 0
-307 -497 508 0
-307 -498 529 0
-307 -499 550 0
-307 -500 571 0
-307 -501 592 0
-307 -502 613 0
-307 -503 634 0
-307 -504 655 0
-308 -505 235 0
-308 -506 256 0
-308 -507 277 0
-308 -508 298 0
-308 -509 319 0
-308 -510 340 0
-308 -511 361 0
-308 -512 382 0
-308 -513 403 0
-308 -514 424 0
-308 -515 445 0
-308 -516 466 0
-308 -517 487 0
-308 -518 508 0
-308 -519 529 0
-308 -520 550 0
-308 -521 571 0
-308 -522 592 0
-308 -523 613 0
-308 -524 634 0
-308 -525 655 0
-309 -526 235 0
-309 -527 256 0
-309 -528 277 0
-309 -529 298 0
-309 -530 319 0
-309 -531 340 0
-309 -532 361 0
-309 -533 382 0
-309 -534 403 0
-309 -535 424 0
-309 -536 445 0
-309 -537 466 0
-309 -538 487 0
-309 -539 508 0
-309 -540 529 0
-309 -541 550 0
-309 -542 571 0
-309 -543 592 0
-309 -544 613 0
-309 -545 634 0
-309 -546 655 0
-310 -547 235 0
-310 -548 256 0
-310 -549 277 0
-310 -550 298 0
-310 -551 319 0
-310 -552 340 0
-310 -553 361 0
-310 -554 382 0
-310 -555 403 0
-310 -556 424 0
-310 -557 445 0
-310 -558 466 0
-310 -559 487 0
-310 -560 508 0
-310 -561 529 0
-310 -562 550 0
-310 -563 571 0
-310 -564 592 0
-310 -565 613 0
-310 -566 634 0
-310 -567 655 0
-311 -568 235 0
-311 -569 256 0
-311 -570 277 0
-311 -571 298 0
-311 -572 319 0
-311 -573 340 0
-311 -574 361 0
-311 -575 382 0
-311 -576 403 0
-311 -577 424 0
-311 -578 445 0
-311 -579 466 0
-311 -580 487 0
-311 -581 508 0
-311 -582 529 0
-311 -583 550 0
-311 -584 571 0
-311 -585 592 0
-311 -586 613 0
-311 -587 634 0
-311 -588 655 0
-312 -589 235 0
-312 -590 256 0
-312 -591 277 0
-312 -592 298 0
-312 -593 319 0
-312 -594 340 0
-312 -595 361 0
-312 -596 382 0
-312 -597 403 0
-312 -598 424 0
-312 -599 445 0
-312 -600 466 0
-312 -601 487 0
-312 -602 508 0
-312 -603 529 0
-312 -604 550 0
-312 -605 571 0
-312 -606 592 0
-312 -607 613 0
-312 -608 634 0
-312 -609 655 0
-313 -610 235 0
-313 -611 256 0
-313 -612 277 0
-313 -613 298 0
-313 -614 319 0
-313 -615 340 0
-313 -616 361 0
-313 -617 382 0
-313 -618 403 0
-313 -619 424 0
-313 -620 445 0
-313 -621 466 0
-313 -622 487 0
-313 -623 508 0
-313 -624 529 0
-313 -625 550 0
-313 -626 571 0
-313 -627 592 0
-313 -628 613 0
-313 -629 634 0
-313 -630 655 0
-314 -631 235 0
-314 -632 256 0
-314 -633 277 0
-314 -634 298 0
-314 -635 319 0
-314 -636 340 0
-314 -637 361 0
-314 -638 382 0
-314 -639 403 0
-314 -640 424 0
-314 -641 445 0
-314 -642 466 0
-314 -643 487 0
-314 -644 508 0
-314 -645 529 0
-314 -646 550 0
-314 -647 571 0
-314 -648 592 0
-314 -649 613 0
-314 -650 634 0
-314 -651 655 0
-315 -652 235 0
-315 -653 256 0
-315 -654 277 0
-315 -655 298 0
-315 -656 319 0
-315 -657 340 0
-315 -658 361 0
-315 -659 382 0
-315 -660 403 0
-315 -661 424 0
-315 -662 445 0
-315 -663 466 0
-315 -664 487 0
-315 -665 508 0
-315 -666 529 0
-315 -667 550 0
-315 -668 571 0
-315 -669 592 0
-315 -670 613 0
-315 -671 634 0
-315 -672 655 0
-316 -232 236 0
-316 -233 257 0
-316 -234 278 0
-316 -235 299 0
-316 -236 320 0
-316 -237 341 0
-316 -238 362 0
-316 -239 383 0
-316 -240 404 0
-316 -241 425 0
-316 -242 446 0
-316 -243 467 0
-316 -244 488 0
-316 -245 509 0
-316 -246 530 0
-316 -247 551 0
-316 -248 572 0
-316 -249 593 0
-316 -250 614 0
-316 -251 635 0
-316 -252 656 0
-317 -253 236 0
-317 -254 257 0
-317 -255 278 0
-317 -256 299 0
-317 -257 320 0
-317 -258 341 0
-317 -259 362 0
-317 -260 383 0
-317 -261 404 0
-317 -262 425 0
-317 -263 446 0
-317 -264 467 0
-317 -265 488 0
-317 -266 509 0
-317 -267 530 0
-317 -268 551 0
-317 -269 572 0
-317 -270 593 0
-317 -271 614 0
-317 -272 635 0
-317 -273 656 0
-318 -274 236 0
-318 -275 257 0
-318 -276 278 0
-318 -277 299 0
-318 -278 320 0
-318 -279 341 0
-318 -280 362 0
-318 -281 383 0
-318 -282 404 0
-318 -283 425 0
-318 -284 446 0
-318 -285 467 0
-318 -286 488 0
-318 -287 509 0
-318 -288 530 0
-318 -289 551 0
-318 -290 572 0
-318 -291 593 0
-318 -292 614 0
-318 -293 635 0
-318 -294 656 0
-319 -295 236 0
-319 -296 257 0
-319 -297 278 0
-319 -298 299 0
-319 -299 320 0
-319 -300 341 0
-319 -301 362 0
-319 -302 383 0
-319 -303 404 0
-319 -304 425 0
-319 -305 446 0
-319 -306 467 0
-319 -307 488 0
-319 -308 509 0
-319 -309 530 0
-319 -310 551 0
-319 -311 572 0
-319 -312 593 0
-319 -313 614 0
-319 -314 635 0
-319 -315 656 0
-320 -316 236 0
-320 -317 257 0
-320 -318 278 0
-320 -319 299 0
-320 -320 320 0
-320 -321 341 0
-320 -322 362 0
-320 -323 383 0
-320 -324 404 0
-320 -325 425 0
-320 -326 446 0
-320 -327 467 0
-320 -328 488 0
-320 -329 509 0
-320 -330 530 0
-320 -331 551 0
-320 -332 572 0
-320 -333 593 0
-320 -334 614 0
-320 -335 635 0
-320 -336 656 0
-321 -337 236 0
-321 -338 257 0
-321 -339 278 0
-321 -340 299 0
-321 -341 320 0
-321 -342 341 0
-321 -343 362 0
-321 -344 383 0
-321 -345 404 0
-321 -346 425 0
-321 -347 446 0
-321 -348 467 0
-321 -349 488 0
-321 -350 509 0
-321 -351 530 0
-321 -352 551 0
-321 -353 572 0
-321 -354 593 0
-321 -355 614 0
-321 -356 635 0
-321 -357 656 0
-322 -358 236 0
-322 -359 257 0
-322 -360 278 0
-322 -361 299 0
-322 -362 320 0
-322 -363 341 0
-322 -364 362 0
-322 -365 383 0
-322 -366 404 0
-322 -367 425 0
-322 -368 446 0
-322 -369 467 0
-322 -370 488 0
-322 -371 509 0
-322 -372 530 0
-322 -373 551 0
-322 -374 572 0
-322 -375 593 0
-322 -376 614 0
-322 -377 635 0
-322 -378 656 0
-323 -379 236 0
-323 -380 257 0
-323 -381 278 0
-323 -382 299 0
-323 -383 320 0
-323 -384 341 0
-323 -385 362 0
-323 -386 383 0
-323 -387 404 0
-323 -388 425 0
-323 -389 446 0
-323 -390 467 0
-323 -391 488 0
-323 -392 509 0
-323 -393 530 0
-323 -394 551 0
-323 -395 572 0
-323 -396 593 0
-323 -397 614 0
-323 -398 635 0
-323 -399 656 0
-324 -400 236 0
-324 -401 257 0
-324 -402 278 0
-324 -403 299 0
-324 -404 320 0
-324 -405 341 0
-324 -406 362 0
-324 -407 383 0
-324 -408 404 0
-324 -409 425 0
-324 -410 446 0
-324 -411 467 0
-324 -412 488 0
-324 -413 509 0
-324 -414 530 0
-324 -415 551 0
-324 -416 572 0
-324 -417 593 0
-324 -418 614 0
-324 -419 635 0
-324 -420 656 0
-325 -421 236 0
-325 -422 257 0
-325 -423 278 0
-325 -424 299 0
-325 -425 320 0
-325 -426 341 0
-325 -427 362 0
-325 -428 383 0
-325 -429 404 0
-325 -430 425 0
-325 -431 446 0
-325 -432 467 0
-325 -433 488 0
-325 -434 509 0
-325 -435 530 0
-325 -436 551 0
-325 -437 572 0
-325 -438 593 0
-325 -439 614 0
-325 -440 635 0
-325 -441 656 0
-326 -442 236 0
-326 -443 257 0
-326 -444 278 0
-326 -445 299 0
-326 -446 320 0
-326 -447 341 0
-326 -448 362 0
-326 -449 383 0
-326 -450 404 0
-326 -451 425 0
-326 -452 446 0
-326 -453 467 0
-326 -454 488 0
-326 -455 509 0
-326 -456 530 0
-326 -457 551 0
-326 -458 572 0
-326 -459 593 0
-326 -460 614 0
-326 -461 635 0
-326 -462 656 0
-327 -463 236 0
-327 -464 257 0
-327 -465 278 0
-327 -466 299 0
-327 -467 320 0
-327 -468 341 0
-327 -469 362 0
-327 -470 383 0
-327 -471 404 0
-327 -472 425 0
-327 -473 446 0
-327 -474 467 0
-327 -475 488 0
-327 -476 509 0
-327 -477 530 0
-327 -478 551 0
-327 -479 572 0
-327 -480 593 0
-327 -481 614 0
-327 -482 635 0
-327 -483 656 0
-328 -484 236 0
-328 -485 257 0
-328 -486 278 0
-328 -487 299 0
-328 -488 320 0
-328 -489 341 0
-328 -490 362 0
-328 -491 383 0
-328 -492 404 0
-328 -493 425 0
-328 -494 446 0
-328 -495 467 0
-328 -496 488 0
-328 -497 509 0
-328 -498 530 0
-328 -499 551 0
-328 -500 572 0
-328 -501 593 0
-328 -502 614 0
-328 -503 635 0
-328 -504 656 0
-329 -505 236 0
-329 -506 257 0
-329 -507 278 0
-329 -508 299 0
-329 -509 320 0
-329 -510 341 0
-329 -511 362 0
-329 -512 383 0
-329 -513 404 0
-329 -514 425 0
-329 -515 446 0
-329 -516 467 0
-329 -517 488 0
-329 -518 509 0
-329 -519 530 0
-329 -520 551 0
-329 -521 572 0
-329 -522 593 0
-329 -523 614 0
-329 -524 635 0
-329 -525 656 0
-330 -526 236 0
-330 -527 257 0
-330 -528 278 0
-330 -529 299 0
-330 -530 320 0
-330 -531 341 0
-330 -532 362 0
-330 -533 383 0
-330 -534 404 0
-330 -535 425 0
-330 -536 446 0
-330 -537 467 0
-330 -538 488 0
-330 -539 509 0
-330 -540 530 0
-330 -541 551 0
-330 -542 572 0
-330 -543 593 0
-330 -544 614 0
-330 -545 635 0
-330 -546 656 0
-331 -547 236 0
-331 -548 257 0
-331 -549 278 0
-331 -550 299 0
-331 -551 320 0
-331 -552 341 0
-331 -553 362 0
-331 -554 383 0
-331 -555 404 0
-331 -556 425 0
-331 -557 446 0
-331 -558 467 0
-331 -559 488 0
-331 -560 509 0
-331 -561 530 0
-331 -562 551 0
-331 -563 572 0
-331 -564 593 0
-331 -565 614 0
-331 -566 635 0
-331 -567 656 0
-332 -568 236 0
-332 -569 257 0
-332 -570 278 0
-332 -571 299 0
-332 -572 320 0
-332 -573 341 0
-332 -574 362 0
-332 -575 383 0
-332 -576 404 0
-332 -577 425 0
-332 -578 446 0
-332 -579 467 0
-332 -580 488 0
-332 -581 509 0
-332 -582 530 0
-332 -583 551 0
-332 -584 572 0
-332 -585 593 0
-332 -586 614 0
-332 -587 635 0
-332 -588 656 0
-333 -589 236 0
-333 -590 257 0
-333 -591 278 0
-333 -592 299 0
-333 -593 320 0
-333 -594 341 0
-333 -595 362 0
-333 -596 383 0
-333 -597 404 0
-333 -598 425 0
-333 -599 446 0
-333 -600 467 0
-333 -601 488 0
-333 -602 509 0
-333 -603 530 0
-333 -604 551 0
-333 -605 572 0
-333 -606 593 0
-333 -607 614 0
-333 -608 635 0
-333 -609 656 0
-334 -610 236 0
-334 -611 257 0
-334 -612 278 0
-334 -613 299 0
-334 -614 320 0
-334 -615 341 0
-334 -616 362 0
-334 -617 383 0
-334 -618 404 0
-334 -619 425 0
-334 -620 446 0
-334 -621 467 0
-334 -622 488 0
-334 -623 509 0
-334 -624 530 0
-334 -625 551 0
-334 -626 572 0
-334 -627 593 0
-334 -628 614 0
-334 -629 635 0
-334 -630 656 0
-335 -631 236 0
-335 -632 257 0
-335 -633 278 0
-335 -634 299 0
-335 -635 320 0
-335 -636 341 0
-335 -637 362 0
-335 -638 383 0
-335 -639 404 0
-335 -640 425 0
-335 -641 446 0
-335 -642 467 0
-335 -643 488 0
-335 -644 509 0
-335 -645 530 0
-335 -646 551 0
-335 -647 572 0
-335 -648 593 0
-335 -649 614 0
-335 -650 635 0
-335 -651 656 0
-336 -652 236 0
-336 -653 257 0
-336 -654 278 0
-336 -655 299 0
-336 -656 320 0
-336 -657 341 0
-336 -658 362 0
-336 -659 383 0
-336 -660 404 0
-336 -661 425 0
-336 -662 446 0
-336 -663 467 0
-336 -664 488 0
-336 -665 509 0
-336 -666 530 0
-336 -667 551 0
-336 -668 572 0
-336 -669 593 0
-336 -670 614 0
-336 -671 635 0
-336 -672 656 0
-337 -232 237 0
-337 -233 258 0
-337 -234 279 0
-337 -235 300 0
-337 -236 321 0
-337 -237 342 0
-337 -238 363 0
-337 -239 384 0
-337 -240 405 0
-337 -241 426 0
-337 -242 447 0
-337 -243 468 0
-337 -244 489 0
-337 -245 510 0
-337 -246 531 0
-337 -247 552 0
-337 -248 573 0
-337 -249 594 0
-337 -250 615 0
-337 -251 636 0
-337 -252 657 0
-338 -253 237 0
-338 -254 258 0
-338 -255 279 0
-338 -256 300 0
-338 -257 321 0
-338 -258 342 0
-338 -259 363 0
-338 -260 384 0
-338 -261 405 0
-338 -262 426 0
-338 -263 447 0
-338 -264 468 0
-338 -265 489 0
-338 -266 510 0
-338 -267 531 0
-338 -268 552 0
-338 -269 573 0
-338 -270 594 0
-338 -271 615 0
-338 -272 636 0
-338 -273 657 0
-339 -274 237 0
-339 -275 258 0
-339 -276 279 0
-339 -277 300 0
-339 -278 321 0
-339 -279 342 0
-339 -280 363 0
-339 -281 384 0
-339 -282 405 0
-339 -283 426 0
-339 -284 447 0
-339 -285 468 0
-339 -286 489 0
-339 -287 510 0
-339 -288 531 0
-339 -289 552 0
-339 -290 573 0
-339 -291 594 0
-339 -292 615 0
-339 -293 636 0
-339 -294 657 0
-340 -295 237 0
-340 -296 258 0
-340 -297 279 0
-340 -298 300 0
-340 -299 321 0
-340 -300 342 0
-340 -301 363 0
-340 -302 384 0
-340 -303 405 0
-340 -304 426 0
-340 -305 447 0
-340 -306 468 0
-340 -307 489 0
-340 -308 510 0
-340 -309 531 0
-340 -310 552 0
-340 -311 573 0
-340 -312 594 0
-340 -313 615 0
-340 -314 636 0
-340 -315 657 0
-341 -316 237 0
-341 -317 258 0
-341 -318 279 0
-341 -319 300 0
-341 -320 321 0
-341 -321 342 0
-341 -322 363 0
-341 -323 384 0
-341 -324 405 0
-341 -325 426 0
-341 -326 447 0
-341 -327 468 0
-341 -328 489 0
-341 -329 510 0
-341 -330 531 0
-341 -331 552 0
-341 -332 573 0
-341 -333 594 0
-341 -334 615 0
-341 -335 636 0
-341 -336 657 0
-342 -337 237 0
-342 -338 258 0
-342 -339 279 0
-342 -340 300 0
-342 -341 321 0
-342 -342 342 0
-342 -343 363 0
-342 -344 384 0
-342 -345 405 0
-342 -346 426 0
-342 -347 447 0
-342 -348 468 0
-342 -349 489 0
-342 -350 510 0
-342 -351 531 0
-342 -352 552 0
-342 -353 573 0
-342 -354 594 0
-342 -355 615 0
-342 -356 636 0
-342 -357 657 0
-343 -358 237 0
-343 -359 258 0
-343 -360 279 0
-343 -361 300 0
-343 -362 321 0
-343 -363 342 0
-343 -364 363 0
-343 -365 384 0
-343 -366 405 0
-343 -367 426 0
-343 -368 447 0
-343 -369 468 0
-343 -370 489 0
-343 -371 510 0
-343 -372 531 0
-343 -373 552 0
-343 -374 573 0
-343 -375 594 0
-343 -376 615 0
-343 -377 636 0
-343 -378 657 0
-344 -379 237 0
-344 -380 258 0
-344 -381 279 0
-344 -382 300 0
-344 -383 321 0
-344 -384 342 0
-344 -385 363 0
-344 -386 384 0
-344 -387 405 0
-344 -388 426 0
-344 -389 447 0
-344 -390 468 0
-344 -391 489 0
-344 -392 510 0
-344 -393 531 0
-344 -394 552 0
-344 -395 573 0
-344 -396 594 0
-344 -397 615 0
-344 -398 636 0
-344 -399 657 0
-345 -400 237 0
-345 -401 258 0
-345 -402 279 0
-345 -403 300 0
-345 -404 321 0
-345 -405 342 0
-345 -406 363 0
-345 -407 384 0
-345 -408 405 0
-345 -409 426 0
-345 -410 447 0
-345 -411 468 0
-345 -412 489 0
-345 -413 510 0
-345 -414 531 0
-345 -415 552 0
-345 -416 573 0
-345 -417 594 0
-345 -418 615 0
-345 -419 636 0
-345 -420 657 0
-346 -421 237 0
-346 -422 258 0
-346 -423 279 0
-346 -424 300 0
-346 -425 321 0
-346 -426 342 0
-346 -427 363 0
-346 -428 384 0
-346 -429 405 0
-346 -430 426 0
-346 -431 447 0
-346 -432 468 0
-346 -433 489 0
-346 -434 510 0
-346 -435 531 0
-346 -436 552 0
-346 -437 573 0
-346 -438 594 0
-346 -439 615 0
-346 -440 636 0
-346 -441 657 0
-347 -442 237 0
-347 -443 258 0
-347 -444 279 0
-347 -445 300 0
-347 -446 321 0
-347 -447 342 0
-347 -448 363 0
-347 -449 384 0
-347 -450 405 0
-347 -451 426 0
-347 -452 447 0
-347 -453 468 0
-347 -454 489 0
-347 -455 510 0
-347 -456 531 0
-347 -457 552 0
-347 -458 573 0
-347 -459 594 0
-347 -460 615 0
-347 -461 636 0
-347 -462 657 0
-348 -463 237 0
-348 -464 258 0
-348 -465 279 0
-348 -466 300 0
-348 -467 321 0
-348 -468 342 0
-348 -469 363 0
-348 -470 384 0
-348 -471 405 0
-348 -472 426 0
-348 -473 447 0
-348 -474 468 0
-348 -475 489 0
-348 -476 510 0
-348 -477 531 0
-348 -478 552 0
-348 -479 573 0
-348 -480 594 0
-348 -481 615 0
-348 -482 636 0
-348 -483 657 0
-349 -484 237 0
-349 -485 258 0
-349 -486 279 0
-349 -487 300 0
-349 -488 321 0
-349 -489 342 0
-349 -490 363 0
-349 -491 384 0
-349 -492 405 0
-349 -493 426 0
-349 -494 447 0
-349 -495 468 0
-349 -496 489 0
-349 -497 510 0
-349 -498 531 0
-349 -499 552 0
-349 -500 573 0
-349 -501 594 0
-349 -502 615 0
-349 -503 636 0
-349 -504 657 0
-350 -505 237 0
-350 -506 258 0
-350 -507 279 0
-350 -508 300 0
-350 -509 321 0
-350 -510 342 0
-350 -511 363 0
-350 -512 384 0
-350 -513 405 0
-350 -514 426 0
-350 -515 447 0
-350 -516 468 0
-350 -517 489 0
-350 -518 510 0
-350 -519 531 0
-350 -520 552 0
-350 -521 573 0
-350 -522 594 0
-350 -523 615 0
-350 -524 636 0
-350 -525 657 0
-351 -526 237 0
-351 -527 258 0
-351 -528 279 0
-351 -529 300 0
-351 -530 321 0
-351 -531 342 0
-351 -532 363 0
-351 -533 384 0
-351 -534 405 0
-351 -535 426 0
-351 -536 447 0
-351 -537 468 0
-351 -538 489 0
-351 -539 510 0
-351 -540 531 0
-351 -541 552 0
-351 -542 573 0
-351 -543 594 0
-351 -544 615 0
-351 -545 636 0
-351 -546 657 0
-352 -547 237 0
-352 -548 258 0
-352 -549 279 0
-352 -550 300 0
-352 -551 321 0
-352 -552 342 0
-352 -553 363 0
-352 -554 384 0
-352 -555 405 0
-352 -556 426 0
-352 -557 447 0
-352 -558 468 0
-352 -559 489 0
-352 -560 510 0
-352 -561 531 0
-352 -562 552 0
-352 -563 573 0
-352 -564 594 0
-352 -565 615 0
-352 -566 636 0
-352 -567 657 0
-353 -568 237 0
-353 -569 258 0
-353 -570 279 0
-353 -571 300 0
-353 -572 321 0
-353 -573 342 0
-353 -574 363 0
-353 -575 384 0
-353 -576 405 0
-353 -577 426 0
-353 -578 447 0
-353 -579 468 0
-353 -580 489 0
-353 -581 510 0
-353 -582 531 0
-353 -583 552 0
-353 -584 573 0
-353 -585 594 0
-353 -586 615 0
-353 -587 636 0
-353 -588 657 0
-354 -589 237 0
-354 -590 258 0
-354 -591 279 0
-354 -592 300 0
-354 -593 321 0
-354 -594 342 0
-354 -595 363 0
-354 -596 384 0
-354 -597 405 0
-354 -598 426 0
-354 -599 447 0
-354 -600 468 0
-354 -601 489 0
-354 -602 510 0
-354 -603 531 0
-354 -604 552 0
-354 -605 573 0
-354 -606 594 0
-354 -607 615 0
-354 -608 636 0
-354 -609 657 0
-355 -610 237 0
-355 -611 258 0
-355 -612 279 0
-355 -613 300 0
-355 -614 321 0
-355 -615 342 0
-355 -616 363 0
-355 -617 384 0
-355 -618 405 0
-355 -619 426 0
-355 -620 447 0
-355 -621 468 0
-355 -622 489 0
-355 -623 510 0
-355 -624 531 0
-355 -625 552 0
-355 -626 573 0
-355 -627 594 0
-355 -628 615 0
-355 -629 636 0
-355 -630 657 0
-356 -631 237 0
-356 -632 258 0
-356 -633 279 0
-356 -634 300 0
-356 -635 321 0
-356 -636 342 0
-356 -637 363 0
-356 -638 384 0
-356 -639 405 0
-356 -640 426 0
-356 -641 447 0
-356 -642 468 0
-356 -643 489 0
-356 -644 510 0
-356 -645 531 0
-356 -646 552 0
-356 -647 573 0
-356 -648 594 0
-356 -649 615 0
-356 -650 636 0
-356 -651 657 0
-357 -652 237 0
-357 -653 258 0
-357 -654 279 0
-357 -655 300 0
-357 -656 321 0
-357 -657 342 0
-357 -658 363 0
-357 -659 384 0
-357 -660 405 0
-357 -661 426 0
-357 -662 447 0
-357 -663 468 0
-357 -664 489 0
-357 -665 510 0
-357 -666 531 0
-357 -667 552 0
-357 -668 573 0
-357 -669 594 0
-357 -670 615 0
-357 -671 636 0
-357 -672 657 0
-358 -232 238 0
-358 -233 259 0
-358 -234 280 0
-358 -235 301 0
-358 -236 322 0
-358 -237 343 0
-358 -238 364 0
-358 -239 385 0
-358 -240 406 0
-358 -241 427 0
-358 -242 448 0
-358 -243 469 0
-358 -244 490 0
-358 -245 511 0
-358 -246 532 0
-358 -247 553 0
-358 -248 574 0
-358 -249 595 0
-358 -250 616 0
-358 -251 637 0
-358 -252 658 0
-359 -253 238 0
-359 -254 259 0
-359 -255 280 0
-359 -256 301 0
-359 -257 322 0
-359 -258 343 0
-359 -259 364 0
-359 -260 385 0
-359 -261 406 0
-359 -262 427 0
-359 -263 448 0
-359 -264 469 0
-359 -265 490 0
-359 -266 511 0
-359 -267 532 0
-359 -268 553 0
-359 -269 574 0
-359 -270 595 0
-359 -271 616 0
-359 -272 637 0
-359 -273 658 0
-360 -274 238 0
-360 -275 259 0
-360 -276 280 0
-360 -277 301 0
-360 -278 322 0
-360 -279 343 0
-360 -280 364 0
-360 -281 385 0
-360 -282 406 0
-360 -283 427 0
-360 -284 448 0
-360 -285 469 0
-360 -286 490 0
-360 -287 511 0
-360 -288 532 0
-360 -289 553 0
-360 -290 574 0
-360 -291 595 0
-360 -292 616 0
-360 -293 637 0
-360 -294 658 0
-361 -295 238 0
-361 -296 259 0
-361 -297 280 0
-361 -298 301 0
-361 -299 322 0
-361 -300 343 0
-361 -301 364 0
-361 -302 385 0
-361 -303 406 0
-361 -304 427 0
-361 -305 448 0
-361 -306 469 0
-361 -307 490 0
-361 -308 511 0
-361 -309 532 0
-361 -310 553 0
-361 -311 574 0
-361 -312 595 0
-361 -313 616 0
-361 -314 637 0
-361 -315 658 0
-362 -316 238 0
-362 -317 259 0
-362 -318 280 0
-362 -319 301 0
-362 -320 322 0
-362 -321 343 0
-362 -322 364 0
-362 -323 385 0
-362 -324 406 0
-362 -325 427 0
-362 -326 448 0
-362 -327 469 0
-362 -328 490 0
-362 -329 511 0
-362 -330 532 0
-362 -331 553 0
-362 -332 574 0
-362 -333 595 0
-362 -334 616 0
-362 -335 637 0
-362 -336 658 0
-363 -337 238 0
-363 -338 259 0
-363 -339 280 0
-363 -340 301 0
-363 -341 322 0
-363 -342 343 0
-363 -343 364 0
-363 -344 385 0
-363 -345 406 0
-363 -346 427 0
-363 -347 448 0
-363 -348 469 0
-363 -349 490 0
-363 -350 511 0
-363 -351 532 0
-363 -352 553 0
-363 -353 574 0
-363 -354 595 0
-363 -355 616 0
-363 -356 637 0
-363 -357 658 0
-364 -358 238 0
-364 -359 259 0
-364 -360 280 0
-364 -361 301 0
-364 -362 322 0
-364 -363 343 0
-364 -364 364 0
-364 -365 385 0
-364 -366 406 0
-364 -367 427 0
-364 -368 448 0
-364 -369 469 0
-364 -370 490 0
-364 -371 511 0
-364 -372 532 0
-364 -373 553 0
-364 -374 574 0
-364 -375 595 0
-364 -376 616 0
-364 -377 637 0
-364 -378 658 0
-365 -379 238 0
-365 -380 259 0
-365 -381 280 0
-365 -382 301 0
-365 -383 322 0
-365 -384 343 0
-365 -385 364 0
-365 -386 385 0
-365 -387 406 0
-365 -388 427 0
-365 -389 448 0
-365 -390 469 0
-365 -391 490 0
-365 -392 511 0
-365 -393 532 0
-365 -394 553 0
-365 -395 574 0
-365 -396 595 0
-365 -397 616 0
-365 -398 637 0
-365 -399 658 0
-366 -400 238 0
-366 -401 259 0
-366 -402 280 0
-366 -403 301 0
-366 -404 322 0
-366 -405 343 0
-366 -406 364 0
-366 -407 385 0
-366 -408 406 0
-366 -409 427 0
-366 -410 448 0
-366 -411 469 0
-366 -412 490 0
-366 -413 511 0
-366 -414 532 0
-366 -415 553 0
-366 -416 574 0
-366 -417 595 0
-366 -418 616 0
-366 -419 637 0
-366 -420 658 0
-367 -421 238 0
-367 -422 259 0
-367 -423 280 0
-367 -424 301 0
-367 -425 322 0
-367 -426 343 0
-367 -427 364 0
-367 -428 385 0
-367 -429 406 0
-367 -430 427 0
-367 -431 448 0
-367 -432 469 0
-367 -433 490 0
-367 -434 511 0
-367 -435 532 0
-367 -436 553 0
-367 -437 574 0
-367 -438 595 0
-367 -439 616 0
-367 -440 637 0
-367 -441 658 0
-368 -442 238 0
-368 -443 259 0
-368 -444 280 0
-368 -445 301 0
-368 -446 322 0
-368 -447 343 0
-368 -448 364 0
-368 -449 385 0
-368 -450 406 0
-368 -451 427 0
-368 -452 448 0
-368 -453 469 0
-368 -454 490 0
-368 -455 511 0
-368 -456 532 0
-368 -457 553 0
-368 -458 574 0
-368 -459 595 0
-368 -460 616 0
-368 -461 637 0
-368 -462 658 0
-369 -463 238 0
-369 -464 259 0
-369 -465 280 0
-369 -466 301 0
-369 -467 322 0
-369 -468 343 0
-369 -469 364 0
-369 -470 385 0
-369 -471 406 0
-369 -472 427 0
-369 -473 448 0
-369 -474 469 0
-369 -475 490 0
-369 -476 511 0
-369 -477 532 0
-369 -478 553 0
-369 -479 574 0
-369 -480 595 0
-369 -481 616 0
-369 -482 637 0
-369 -483 658 0
-370 -484 238 0
-370 -485 259 0
-370 -486 280 0
-370 -487 301 0
-370 -488 322 0
-370 -489 343 0
-370 -490 364 0
-370 -491 385 0
-370 -492 406 0
-370 -493 427 0
-370 -494 448 0
-370 -495 469 0
-370 -496 490 0
-370 -497 511 0
-370 -498 532 0
-370 -499 553 0
-370 -500 574 0
-370 -501 595 0
-370 -502 616 0
-370 -503 637 0
-370 -504 658 0
-371 -505 238 0
-371 -506 259 0
-371 -507 280 0
-371 -508 301 0
-371 -509 322 0
-371 -510 343 0
-371 -511 364 0
-371 -512 385 0
-371 -513 406 0
-371 -514 427 0
-371 -515 448 0
-371 -516 469 0
-371 -517 490 0
-371 -518 511 0
-371 -519 532 0
-371 -520 553 0
-371 -521 574 0
-371 -522 595 0
-371 -523 616 0
-371 -524 637 0
-371 -525 658 0
-372 -526 238 0
-372 -527 259 0
-372 -528 280 0
-372 -529 301 0
-372 -530 322 0
-372 -531 343 0
-372 -532 364 0
-372 -533 385 0
-372 -534 406 0
-372 -535 427 0
-372 -536 448 0
-372 -537 469 0
-372 -538 490 0
-372 -539 511 0
-372 -540 532 0
-372 -541 553 0
-372 -542 574 0
-372 -543 595 0
-372 -544 616 0
-372 -545 637 0
-372 -546 658 0
-373 -547 238 0
-373 -548 259 0
-373 -549 280 0
-373 -550 301 0
-373 -551 322 0
-373 -552 343 0
-373 -553 364 0
-373 -554 385 0
-373 -555 406 0
-373 -556 427 0
-373 -557 448 0
-373 -558 469 0
-373 -559 490 0
-373 -560 511 0
-373 -561 532 0
-373 -562 553 0
-373 -563 574 0
-373 -564 595 0
-373 -565 616 0
-373 -566 637 0
-373 -567 658 0
-374 -568 238 0
-374 -569 259 0
-374 -570 280 0
-374 -571 301 0
-374 -572 322 0
-374 -573 343 0
-374 -574 364 0
-374 -575 385 0
-374 -576 406 0
-374 -577 427 0
-374 -578 448 0
-374 -579 469 0
-374 -580 490 0
-374 -581 511 0
-374 -582 532 0
-374 -583 553 0
-374 -584 574 0
-374 -585 595 0
-374 -586 616 0
-374 -587 637 0
-374 -588 658 0
-375 -589 238 0
-375 -590 259 0
-375 -591 280 0
-375 -592 301 0
-375 -593 322 0
-375 -594 343 0
-375 -595 364 0
-375 -596 385 0
-375 -597 406 0
-375 -598 427 0
-375 -599 448 0
-375 -600 469 0
-375 -601 490 0
-375 -602 511 0
-375 -603 532 0
-375 -604 553 0
-375 -605 574 0
-375 -606 595 0
-375 -607 616 0
-375 -608 637 0
-375 -609 658 0
-376 -610 238 0
-376 -611 259 0
-376 -612 280 0
-376 -613 301 0
-376 -614 322 0
-376 -615 343 0
-376 -616 364 0
-376 -617 385 0
-376 -618 406 0
-376 -619 427 0
-376 -620 448 0
-376 -621 469 0
-376 -622 490 0
-376 -623 511 0
-376 -624 532 0
-376 -625 553 0
-376 -626 574 0
-376 -627 595 0
-376 -628 616 0
-376 -629 637 0
-376 -630 658 0
-377 -631 238 0
-377 -632 259 0
-377 -633 280 0
-377 -634 301 0
-377 -635 322 0
-377 -636 343 0
-377 -637 364 0
-377 -638 385 0
-377 -639 406 0
-377 -640 427 0
-377 -641 448 0
-377 -642 469 0
-377 -643 490 0
-377 -644 511 0
-377 -645 532 0
-377 -646 553 0
-377 -647 574 0
-377 -648 595 0
-377 -649 616 0
-377 -650 637 0
-377 -651 658 0
-378 -652 238 0
-378 -653 259 0
-378 -654 280 0
-378 -655 301 0
-378 -656 322 0
-378 -657 343 0
-378 -658 364 0
-378 -659 385 0
-378 -660 406 0
-378 -661 427 0
-378 -662 448 0
-378 -663 469 0
-378 -664 490 0
-378 -665 511 0
-378 -666 532 0
-378 -667 553 0
-378 -668 574 0
-378 -669 595 0
-378 -670 616 0
-378 -671 637 0
-378 -672 658 0
-379 -232 239 0
-379 -233 260 0
-379 -234 281 0
-379 -235 302 0
-379 -236 323 0
-379 -237 344 0
-379 -238 365 0
-379 -239 386 0
-379 -240 407 0
-379 -241 428 0
-379 -242 449 0
-379 -243 470 0
-379 -244 491 0
-379 -245 512 0
-379 -246 533 0
-379 -247 554 0
-379 -248 575 0
-379 -249 596 0
-379 -250 617 0
-379 -251 638 0
-379 -252 659 0
-380 -253 239 0
-380 -254 260 0
-380 -255 281 0
-380 -256 302 0
-380 -257 323 0
-380 -258 344 0
-380 -259 365 0
-380 -260 386 0
-380 -261 407 0
-380 -262 428 0
-380 -263 449 0
-380 -264 470 0
-380 -265 491 0
-380 -266 512 0
-380 -267 533 0
-380 -268 554 0
-380 -269 575 0
-380 -270 596 0
-380 -271 617 0
-380 -272 638 0
-380 -273 659 0
-381 -274 239 0
-381 -275 260 0
-381 -276 281 0
-381 -277 302 0
-381 -278 323 0
-381 -279 344 0
-381 -280 365 0
-381 -281 386 0
-381 -282 407 0
-381 -283 428 0
-381 -284 449 0
-381 -285 470 0
-381 -286 491 0
-381 -287 512 0
-381 -288 533 0
-381 -289 554 0
-381 -290 575 0
-381 -291 596 0
-381 -292 617 0
-381 -293 638 0
-381 -294 659 0
-382 -295 239 0
-382 -296 260 0
-382 -297 281 0
-382 -298 302 0
-382 -299 323 0
-382 -300 344 0
-382 -301 365 0
-382 -302 386 0
-382 -303 407 0
-382 -304 428 0
-382 -305 449 0
-382 -306 470 0
-382 -307 491 0
-382 -308 512 0
-382 -309 533 0
-382 -310 554 0
-382 -311 575 0
-382 -312 596 0
-382 -313 617 0
-382 -314 638 0
-382 -315 659 0
-383 -316 239 0
-383 -317 260 0
-383 -318 281 0
-383 -319 302 0
-383 -320 323 0
-383 -321 344 0
-383 -322 365 0
-383 -323 386 0
-383 -324 407 0
-383 -325 428 0
-383 -326 449 0
-383 -327 470 0
-383 -328 491 0
-383 -329 512 0
-383 -330 533 0
-383 -331 554 0
-383 -332 575 0
-383 -333 596 0
-383 -334 617 0
-383 -335 638 0
-383 -336 659 0
-384 -337 239 0
-384 -338 260 0
-384 -339 281 0
-384 -340 302 0
-384 -341 323 0
-384 -342 344 0
-384 -343 365 0
-384 -344 386 0
-384 -345 407 0
-384 -346 428 0
-384 -347 449 0
-384 -348 470 0
-384 -349 491 0
-384 -350 512 0
-384 -351 533 0
-384 -352 554 0
-384 -353 575 0
-384 -354 596 0
-384 -355 617 0
-384 -356 638 0
-384 -357 659 0
-385 -358 239 0
-385 -359 260 0
-385 -360 281 0
-385 -361 302 0
-385 -362 323 0
-385 -363 344 0
-385 -364 365 0
-385 -365 386 0
-385 -366 407 0
-385 -367 428 0
-385 -368 449 0
-385 -369 470 0
-385 -370 491 0
-385 -371 512 0
-385 -372 533 0
-385 -373 554 0
-385 -374 575 0
-385 -375 596 0
-385 -376 617 0
-385 -377 638 0
-385 -378 659 0
-386 -379 239 0
-386 -380 260 0
-386 -381 281 0
-386 -382 302 0
-386 -383 323 0
-386 -384 344 0
-386 -385 365 0
-386 -386 386 0
-386 -387 407 0
-386 -388 428 0
-386 -389 449 0
-386 -390 470 0
-386 -391 491 0
-386 -392 512 0
-386 -393 533 0
-386 -394 554 0
-386 -395 575 0
-386 -396 596 0
-386 -397 617 0
-386 -398 638 0
-386 -399 659 0
-387 -400 239 0
-387 -401 260 0
-387 -402 281 0
-387 -403 302 0
-387 -404 323 0
-387 -405 344 0
-387 -406 365 0
-387 -407 386 0
-387 -408 407 0
-387 -409 428 0
-387 -410 449 0
-387 -411 470 0
-387 -412 491 0
-387 -413 512 0
-387 -414 533 0
-387 -415 554 0
-387 -416 575 0
-387 -417 596 0
-387 -418 617 0
-387 -419 638 0
-387 -420 659 0
-388 -421 239 0
-388 -422 260 0
-388 -423 281 0
-388 -424 302 0
-388 -425 323 0
-388 -426 344 0
-388 -427 365 0
-388 -428 386 0
-388 -429 407 0
-388 -430 428 0
-388 -431 449 0
-388 -432 470 0
-388 -433 491 0
-388 -434 512 0
-388 -435 533 0
-388 -436 554 0
-388 -437 575 0
-388 -438 596 0
-388 -439 617 0
-388 -440 638 0
-388 -441 659 0
-389 -442 239 0
-389 -443 260 0
-389 -444 281 0
-389 -445 302 0
-389 -446 323 0
-389 -447 344 0
-389 -448 365 0
-389 -449 386 0
-389 -450 407 0
-389 -451 428 0
-389 -452 449 0
-389 -453 470 0
-389 -454 491 0
-389 -455 512 0
-389 -456 533 0
-389 -457 554 0
-389 -458 575 0
-389 -459 596 0
-389 -460 617 0
-389 -461 638 0
-389 -462 659 0
-390 -463 239 0
-390 -464 260 0
-390 -465 281 0
-390 -466 302 0
-390 -467 323 0
-390 -468 344 0
-390 -469 365 0
-390 -470 386 0
-390 -471 407 0
-390 -472 428 0
-390 -473 449 0
-390 -474 470 0
-390 -475 491 0
-390 -476 512 0
-390 -477 533 0
-390 -478 554 0
-390 -479 575 0
-390 -480 596 0
-390 -481 617 0
-390 -482 638 0
-390 -483 659 0
-391 -484 239 0
-391 -485 260 0
-391 -486 281 0
-391 -487 302 0
-391 -488 323 0
-391 -489 344 0
-391 -490 365 0
-391 -491 386 0
-391 -492 407 0
-391 -493 428 0
-391 -494 449 0
-391 -495 470 0
-391 -496 491 0
-391 -497 512 0
-391 -498 533 0
-391 -499 554 0
-391 -500 575 0
-391 -501 596 0
-391 -502 617 0
-391 -503 638 0
-391 -504 659 0
-392 -505 239 0
-392 -506 260 0
-392 -507 281 0
-392 -508 302 0
-392 -509 323 0
-392 -510 344 0
-392 -511 365 0
-392 -512 386 0
-392 -513 407 0
-392 -514 428 0
-392 -515 449 0
-392 -516 470 0
-392 -517 491 0
-392 -518 512 0
-392 -519 533 0
-392 -520 554 0
-392 -521 575 0
-392 -522 596 0
-392 -523 617 0
-392 -524 638 0
-392 -525 659 0
-393 -526 239 0
-393 -527 260 0
-393 -528 281 0
-393 -529 302 0
-393 -530 323 0
-393 -531 344 0
-393 -532 365 0
-393 -533 386 0
-393 -534 407 0
-393 -535 428 0
-393 -536 449 0
-393 -537 470 0
-393 -538 491 0
-393 -539 512 0
-393 -540 533 0
-393 -541 554 0
-393 -542 575 0
-393 -543 596 0
-393 -544 617 0
-393 -545 638 0
-393 -546 659 0
-394 -547 239 0
-394 -548 260 0
-394 -549 281 0
-394 -550 302 0
-394 -551 323 0
-394 -552 344 0
-394 -553 365 0
-394 -554 386 0
-394 -555 407 0
-394 -556 428 0
-394 -557 449 0
-394 -558 470 0
-394 -559 491 0
-394 -560 512 0
-394 -561 533 0
-394 -562 554 0
-394 -563 575 0
-394 -564 596 0
-394 -565 617 0
-394 -566 638 0
-394 -567 659 0
-395 -568 239 0
-395 -569 260 0
-395 -570 281 0
-395 -571 302 0
-395 -572 323 0
-395 -573 344 0
-395 -574 365 0
-395 -575 386 0
-395 -576 407 0
-395 -577 428 0
-395 -578 449 0
-395 -579 470 0
-395 -580 491 0
-395 -581 512 0
-395 -582 533 0
-395 -583 554 0
-395 -584 575 0
-395 -585 596 0
-395 -586 617 0
-395 -587 638 0
-395 -588 659 0
-396 -589 239 0
-396 -590 260 0
-396 -591 281 0
-396 -592 302 0
-396 -593 323 0
-396 -594 344 0
-396 -595 365 0
-396 -596 386 0
-396 -597 407 0
-396 -598 428 0
-396 -599 449 0
-396 -600 470 0
-396 -601 491 0
-396 -602 512 0
-396 -603 533 0
-396 -604 554 0
-396 -605 575 0
-396 -606 596 0
-396 -607 617 0
-396 -608 638 0
-396 -609 659 0
-397 -610 239 0
-397 -611 260 0
-397 -612 281 0
-397 -613 302 0
-397 -614 323 0
-397 -615 344 0
-397 -616 365 0
-397 -617 386 0
-397 -618 407 0
-397 -619 428 0
-397 -620 449 0
-397 -621 470 0
-397 -622 491 0
-397 -623 512 0
-397 -624 533 0
-397 -625 554 0
-397 -626 575 0
-397 -627 596 0
-397 -628 617 0
-397 -629 638 0
-397 -630 659 0
-398 -631 239 0
-398 -632 260 0
-398 -633 281 0
-398 -634 302 0
-398 -635 323 0
-398 -636 344 0
-398 -637 365 0
-398 -638 386 0
-398 -639 407 0
-398 -640 428 0
-398 -641 449 0
-398 -642 470 0
-398 -643 491 0
-398 -644 512 0
-398 -645 533 0
-398 -646 554 0
-398 -647 575 0
-398 -648 596 0
-398 -649 617 0
-398 -650 638 0
-398 -651 659 0
-399 -652 239 0
-399 -653 260 0
-399 -654 281 0
-399 -655 302 0
-399 -656 323 0
-399 -657 344 0
-399 -658 365 0
-399 -659 386 0
-399 -660 407 0
-399 -661 428 0
-399 -662 449 0
-399 -663 470 0
-399 -664 491 0
-399 -665 512 0
-399 -666 533 0
-399 -667 554 0
-399 -668 575 0
-399 -669 596 0
-399 -670 617 0
-399 -671 638 0
-399 -672 659 0
-400 -232 240 0
-400 -233 261 0
-400 -234 282 0
-400 -235 303 0
-400 -236 324 0
-400 -237 345 0
-400 -238 366 0
-400 -239 387 0
-400 -240 408 0
-400 -241 429 0
-400 -242 450 0
-400 -243 471 0
-400 -244 492 0
-400 -245 513 0
-400 -246 534 0
-400 -247 555 0
-400 -248 576 0
-400 -249 597 0
-400 -250 618 0
-400 -251 639 0
-400 -252 660 0
-401 -253 240 0
-401 -254 261 0
-401 -255 282 0
-401 -256 303 0
-401 -257 324 0
-401 -258 345 0
-401 -259 366 0
-401 -260 387 0
-401 -261 408 0
-401 -262 429 0
-401 -263 450 0
-401 -264 471 0
-401 -265 492 0
-401 -266 513 0
-401 -267 534 0
-401 -268 555 0
-401 -269 576 0
-401 -270 597 0
-401 -271 618 0
-401 -272 639 0
-401 -273 660 0
-402 -274 240 0
-402 -275 261 0
-402 -276 282 0
-402 -277 303 0
-402 -278 324 0
-402 -279 345 0
-402 -280 366 0
-402 -281 387 0
-402 -282 408 0
-402 -283 429 0
-402 -284 450 0
-402 -285 471 0
-402 -286 492 0
-402 -287 513 0
-402 -288 534 0
-402 -289 555 0
-402 -290 576 0
-402 -291 597 0
-402 -292 618 0
-402 -293 639 0
-402 -294 660 0
-403 -295 240 0
-403 -296 261 0
-403 -297 282 0
-403 -298 303 0
-403 -299 324 0
-403 -300 345 0
-403 -301 366 0
-403 -302 387 0
-403 -303 408 0
-403 -304 429 0
-403 -305 450 0
-403 -306 471 0
-403 -307 492 0
-403 -308 513 0
-403 -309 534 0
-403 -310 555 0
-403 -311 576 0
-403 -312 597 0
-403 -313 618 0
-403 -314 639 0
-403 -315 660 0
-404 -316 240 0
-404 -317 261 0
-404 -318 282 0
-404 -319 303 0
-404 -320 324 0
-404 -321 345 0
-404 -322 366 0
-404 -323 387 0
-404 -324 408 0
-404 -325 429 0
-404 -326 450 0
-404 -327 471 0
-404 -328 492 0
-404 -329 513 0
-404 -330 534 0
-404 -331 555 0
-404 -332 576 0
-404 -333 597 0
-404 -334 618 0
-404 -335 639 0
-404 -336 660 0
-405 -337 240 0
-405 -338 261 0
-405 -339 282 0
-405 -340 303 0
-405 -341 324 0
-405 -342 345 0
-405 -343 366 0
-405 -344 387 0
-405 -345 408 0
-405 -346 429 0
-405 -347 450 0
-405 -348 471 0
-405 -349 492 0
-405 -350 513 0
-405 -351 534 0
-405 -352 555 0
-405 -353 576 0
-405 -354 597 0
-405 -355 618 0
-405 -356 639 0
-405 -357 660 0
-406 -358 240 0
-406 -359 261 0
-406 -360 282 0
-406 -361 303 0
-406 -362 324 0
-406 -363 345 0
-406 -364 366 0
-406 -365 387 0
-406 -366 408 0
-406 -367 429 0
-406 -368 450 0
-406 -369 471 0
-406 -370 492 0
-406 -371 513 0
-406 -372 534 0
-406 -373 555 0
-406 -374 576 0
-406 -375 597 0
-406 -376 618 0
-406 -377 639 0
-406 -378 660 0
-407 -379 240 0
-407 -380 261 0
-407 -381 282 0
-407 -382 303 0
-407 -383 324 0
-407 -384 345 0
-407 -385 366 0
-407 -386 387 0
-407 -387 408 0
-407 -388 429 0
-407 -389 450 0
-407 -390 471 0
-407 -391 492 0
-407 -392 513 0
-407 -393 534 0
-407 -394 555 0
-407 -395 576 0
-407 -396 597 0
-407 -397 618 0
-407 -398 639 0
-407 -399 660 0
-408 -400 240 0
-408 -401 261 0
-408 -402 282 0
-408 -403 303 0
-408 -404 324 0
-408 -405 345 0
-408 -406 366 0
-408 -407 387 0
-408 -408 408 0
-408 -409 429 0
-408 -410 450 0
-408 -411 471 0
-408 -412 492 0
-408 -413 513 0
-408 -414 534 0
-408 -415 555 0
-408 -416 576 0
-408 -417 597 0
-408 -418 618 0
-408 -419 639 0
-408 -420 660 0
-409 -421 240 0
-409 -422 261 0
-409 -423 282 0
-409 -424 303 0
-409 -425 324 0
-409 -426 345 0
-409 -427 366 0
-409 -428 387 0
-409 -429 408 0
-409 -430 429 0
-409 -431 450 0
-409 -432 471 0
-409 -433 492 0
-409 -434 513 0
-409 -435 534 0
-409 -436 555 0
-409 -437 576 0
-409 -438 597 0
-409 -439 618 0
-409 -440 639 0
-409 -441 660 0
-410 -442 240 0
-410 -443 261 0
-410 -444 282 0
-410 -445 303 0
-410 -446 324 0
-410 -447 345 0
-410 -448 366 0
-410 -449 387 0
-410 -450 408 0
-410 -451 429 0
-410 -452 450 0
-410 -453 471 0
-410 -454 492 0
-410 -455 513 0
-410 -456 534 0
-410 -457 555 0
-410 -458 576 0
-410 -459 597 0
-410 -460 618 0
-410 -461 639 0
-410 -462 660 0
-411 -463 240 0
-411 -464 261 0
-411 -465 282 0
-411 -466 303 0
-411 -467 324 0
-411 -468 345 0
-411 -469 366 0
-411 -470 387 0
-411 -471 408 0
-411 -472 429 0
-411 -473 450 0
-411 -474 471 0
-411 -475 492 0
-411 -476 513 0
-411 -477 534 0
-411 -478 555 0
-411 -479 576 0
-411 -480 597 0
-411 -481 618 0
-411 -482 639 0
-411 -483 660 0
-412 -484 240 0
-412 -485 261 0
-412 -486 282 0
-412 -487 303 0
-412 -488 324 0
-412 -489 345 0
-412 -490 366 0
-412 -491 387 0
-412 -492 408 0
-412 -493 429 0
-412 -494 450 0
-412 -495 471 0
-412 -496 492 0
-412 -497 513 0
-412 -498 534 0
-412 -499 555 0
-412 -500 576 0
-412 -501 597 0
-412 -502 618 0
-412 -503 639 0
-412 -504 660 0
-413 -505 240 0
-413 -506 261 0
-413 -507 282 0
-413 -508 303 0
-413 -509 324 0
-413 -510 345 0
-413 -511 366 0
-413 -512 387 0
-413 -513 408 0
-413 -514 429 0
-413 -515 450 0
-413 -516 471 0
-413 -517 492 0
-413 -518 513 0
-413 -519 534 0
-413 -520 555 0
-413 -521 576 0
-413 -522 597 0
-413 -523 618 0
-413 -524 639 0
-413 -525 660 0
-414 -526 240 0
-414 -527 261 0
-414 -528 282 0
-414 -529 303 0
-414 -530 324 0
-414 -531 345 0
-414 -532 366 0
-414 -533 387 0
-414 -534 408 0
-414 -535 429 0
-414 -536 450 0
-414 -537 471 0
-414 -538 492 0
-414 -539 513 0
-414 -540 534 0
-414 -541 555 0
-414 -542 576 0
-414 -543 597 0
-414 -544 618 0
-414 -545 639 0
-414 -546 660 0
-415 -547 240 0
-415 -548 261 0
-415 -549 282 0
-415 -550 303 0
-415 -551 324 0
-415 -552 345 0
-415 -553 366 0
-415 -554 387 0
-415 -555 408 0
-415 -556 429 0
-415 -557 450 0
-415 -558 471 0
-415 -559 492 0
-415 -560 513 0
-415 -561 534 0
-415 -562 555 0
-415 -563 576 0
-415 -564 597 0
-415 -565 618 0
-415 -566 639 0
-415 -567 660 0
-416 -568 240 0
-416 -569 261 0
-416 -570 282 0
-416 -571 303 0
-416 -572 324 0
-416 -573 345 0
-416 -574 366 0
-416 -575 387 0
-416 -576 408 0
-416 -577 429 0
-416 -578 450 0
-416 -579 471 0
-416 -580 492 0
-416 -581 513 0
-416 -582 534 0
-416 -583 555 0
-416 -584 576 0
-416 -585 597 0
-416 -586 618 0
-416 -587 639 0
-416 -588 660 0
-417 -589 240 0
-417 -590 261 0
-417 -591 282 0
-417 -592 303 0
-417 -593 324 0
-417 -594 345 0
-417 -595 366 0
-417 -596 387 0
-417 -597 408 0
-417 -598 429 0
-417 -599 450 0
-417 -600 471 0
-417 -601 492 0
-417 -602 513 0
-417 -603 534 0
-417 -604 555 0
-417 -605 576 0
-417 -606 597 0
-417 -607 618 0
-417 -608 639 0
-417 -609 660 0
-418 -610 240 0
-418 -611 261 0
-418 -612 282 0
-418 -613 303 0
-418 -614 324 0
-418 -615 345 0
-418 -616 366 0
-418 -617 387 0
-418 -618 408 0
-418 -619 429 0
-418 -620 450 0
-418 -621 471 0
-418 -622 492 0
-418 -623 513 0
-418 -624 534 0
-418 -625 555 0
-418 -626 576 0
-418 -627 597 0
-418 -628 618 0
-418 -629 639 0
-418 -630 660 0
-419 -631 240 0
-419 -632 261 0
-419 -633 282 0
-419 -634 303 0
-419 -635 324 0
-419 -636 345 0
-419 -637 366 0
-419 -638 387 0
-419 -639 408 0
-419 -640 429 0
-419 -641 450 0
-419 -642 471 0
-419 -643 492 0
-419 -644 513 0
-419 -645 534 0
-419 -646 555 0
-419 -647 576 0
-419 -648 597 0
-419 -649 618 0
-419 -650 639 0
-419 -651 660 0
-420 -652 240 0
-420 -653 261 0
-420 -654 282 0
-420 -655 303 0
-420 -656 324 0
-420 -657 345 0
-420 -658 366 0
-420 -659 387 0
-420 -660 408 0
-420 -661 429 0
-420 -662 450 0
-420 -663 471 0
-420 -664 492 0
-420 -665 513 0
-420 -666 534 0
-420 -667 555 0
-420 -668 576 0
-420 -669 597 0
-420 -670 618 0
-420 -671 639 0
-420 -672 660 0
-421 -232 241 0
-421 -233 262 0
-421 -234 283 0
-421 -235 304 0
-421 -236 325 0
-421 -237 346 0
-421 -238 367 0
-421 -239 388 0
-421 -240 409 0
-421 -241 430 0
-421 -242 451 0
-421 -243 472 0
-421 -244 493 0
-421 -245 514 0
-421 -246 535 0
-421 -247 556 0
-421 -248 577 0
-421 -249 598 0
-421 -250 619 0
-421 -251 640 0
-421 -252 661 0
-422 -253 241 0
-422 -254 262 0
-422 -255 283 0
-422 -256 304 0
-422 -257 325 0
-422 -258 346 0
-422 -259 367 0
-422 -260 388 0
-422 -261 409 0
-422 -262 430 0
-422 -263 451 0
-422 -264 472 0
-422 -265 493 0
-422 -266 514 0
-422 -267 535 0
-422 -268 556 0
-422 -269 577 0
-422 -270 598 0
-422 -271 619 0
-422 -272 640 0
-422 -273 661 0
-423 -274 241 0
-423 -275 262 0
-423 -276 283 0
-423 -277 304 0
-423 -278 325 0
-423 -279 346 0
-423 -280 367 0
-423 -281 388 0
-423 -282 409 0
-423 -283 430 0
-423 -284 451 0
-423 -285 472 0
-423 -286 493 0
-423 -287 514 0
-423 -288 535 0
-423 -289 556 0
-423 -290 577 0
-423 -291 598 0
-423 -292 619 0
-423 -293 640 0
-423 -294 661 0
-424 -295 241 0
-424 -296 262 0
-424 -297 283 0
-424 -298 304 0
-424 -299 325 0
-424 -300 346 0
-424 -301 367 0
-424 -302 388 0
-424 -303 409 0
-424 -304 430 0
-424 -305 451 0
-424 -306 472 0
-424 -307 493 0
-424 -308 514 0
-424 -309 535 0
-424 -310 556 0
-424 -311 577 0
-424 -312 598 0
-424 -313 619 0
-424 -314 640 0
-424 -315 661 0
-425 -316 241 0
-425 -317 262 0
-425 -318 283 0
-425 -319 304 0
-425 -320 325 0
-425 -321 346 0
-425 -322 367 0
-425 -323 388 0
-425 -324 409 0
-425 -325 430 0
-425 -326 451 0
-425 -327 472 0
-425 -328 493 0
-425 -329 514 0
-425 -330 535 0
-425 -331 556 0
-425 -332 577 0
-425 -333 598 0
-425 -334 619 0
-425 -335 640 0
-425 -336 661 0
-426 -337 241 0
-426 -338 262 0
-426 -339 283 0
-426 -340 304 0
-426 -341 325 0
-426 -342 346 0
-426 -343 367 0
-426 -344 388 0
-426 -345 409 0
-426 -346 430 0
-426 -347 451 0
-426 -348 472 0
-426 -349 493 0
-426 -350 514 0
-426 -351 535 0
-426 -352 556 0
-426 -353 577 0
-426 -354 598 0
-426 -355 619 0
-426 -356 640 0
-426 -357 661 0
-427 -358 241 0
-427 -359 262 0
-427 -360 283 0
-427 -361 304 0
-427 -362 325 0
-427 -363 346 0
-427 -364 367 0
-427 -365 388 0
-427 -366 409 0
-427 -367 430 0
-427 -368 451 0
-427 -369 472 0
-427 -370 493 0
-427 -371 514 0
-427 -372 535 0
-427 -373 556 0
-427 -374 577 0
-427 -375 598 0
-427 -376 619 0
-427 -377 640 0
-427 -378 661 0
-428 -379 241 0
-428 -380 262 0
-428 -381 283 0
-428 -382 304 0
-428 -383 325 0
-428 -384 346 0
-428 -385 367 0
-428 -386 388 0
-428 -387 409 0
-428 -388 430 0
-428 -389 451 0
-428 -390 472 0
-428 -391 493 0
-428 -392 514 0
-428 -393 535 0
-428 -394 556 0
-428 -395 577 0
-428 -396 598 0
-428 -397 619 0
-428 -398 640 0
-428 -399 661 0
-429 -400 241 0
-429 -401 262 0
-429 -402 283 0
-429 -403 304 0
-429 -404 325 0
-429 -405 346 0
-429 -406 367 0
-429 -407 388 0
-429 -408 409 0
-429 -409 430 0
-429 -410 451 0
-429 -411 472 0
-429 -412 493 0
-429 -413 514 0
-429 -414 535 0
-429 -415 556 0
-429 -416 577 0
-429 -417 598 0
-429 -418 619 0
-429 -419 640 0
-429 -420 661 0
-430 -421 241 0
-430 -422 262 0
-430 -423 283 0
-430 -424 304 0
-430 -425 325 0
-430 -426 346 0
-430 -427 367 0
-430 -428 388 0
-430 -429 409 0
-430 -430 430 0
-430 -431 451 0
-430 -432 472 0
-430 -433 493 0
-430 -434 514 0
-430 -435 535 0
-430 -436 556 0
-430 -437 577 0
-430 -438 598 0
-430 -439 619 0
-430 -440 640 0
-430 -441 661 0
-431 -442 241 0
-431 -443 262 0
-431 -444 283 0
-431 -445 304 0
-431 -446 325 0
-431 -447 346 0
-431 -448 367 0
-431 -449 388 0
-431 -450 409 0
-431 -451 430 0
-431 -452 451 0
-431 -453 472 0
-431 -454 493 0
-431 -455 514 0
-431 -456 535 0
-431 -457 556 0
-431 -458 577 0
-431 -459 598 0
-431 -460 619 0
-431 -461 640 0
-431 -462 661 0
-432 -463 241 0
-432 -464 262 0
-432 -465 283 0
-432 -466 304 0
-432 -467 325 0
-432 -468 346 0
-432 -469 367 0
-432 -470 388 0
-432 -471 409 0
-432 -472 430 0
-432 -473 451 0
-432 -474 472 0
-432 -475 493 0
-432 -476 514 0
-432 -477 535 0
-432 -478 556 0
-432 -479 577 0
-432 -480 598 0
-432 -481 619 0
-432 -482 640 0
-432 -483 661 0
-433 -484 241 0
-433 -485 262 0
-433 -486 283 0
-433 -487 304 0
-433 -488 325 0
-433 -489 346 0
-433 -490 367 0
-433 -491 388 0
-433 -492 409 0
-433 -493 430 0
-433 -494 451 0
-433 -495 472 0
-433 -496 493 0
-433 -497 514 0
-433 -498 535 0
-433 -499 556 0
-433 -500 577 0
-433 -501 598 0
-433 -502 619 0
-433 -503 640 0
-433 -504 661 0
-434 -505 241 0
-434 -506 262 0
-434 -507 283 0
-434 -508 304 0
-434 -509 325 0
-434 -510 346 0
-434 -511 367 0
-434 -512 388 0
-434 -513 409 0
-434 -514 430 0
-434 -515 451 0
-434 -516 472 0
-434 -517 493 0
-434 -518 514 0
-434 -519 535 0
-434 -520 556 0
-434 -521 577 0
-434 -522 598 0
-434 -523 619 0
-434 -524 640 0
-434 -525 661 0
-435 -526 241 0
-435 -527 262 0
-435 -528 283 0
-435 -529 304 0
-435 -530 325 0
-435 -531 346 0
-435 -532 367 0
-435 -533 388 0
-435 -534 409 0
-435 -535 430 0
-435 -536 451 0
-435 -537 472 0
-435 -538 493 0
-435 -539 514 0
-435 -540 535 0
-435 -541 556 0
-435 -542 577 0
-435 -543 598 0
-435 -544 619 0
-435 -545 640 0
-435 -546 661 0
-436 -547 241 0
-436 -548 262 0
-436 -549 283 0
-436 -550 304 0
-436 -551 325 0
-436 -552 346 0
-436 -553 367 0
-436 -554 388 0
-436 -555 409 0
-436 -556 430 0
-436 -557 451 0
-436 -558 472 0
-436 -559 493 0
-436 -560 514 0
-436 -561 535 0
-436 -562 556 0
-436 -563 577 0
-436 -564 598 0
-436 -565 619 0
-436 -566 640 0
-436 -567 661 0
-437 -568 241 0
-437 -569 262 0
-437 -570 283 0
-437 -571 304 0
-437 -572 325 0
-437 -573 346 0
-437 -574 367 0
-437 -575 388 0
-437 -576 409 0
-437 -577 430 0
-437 -578 451 0
-437 -579 472 0
-437 -580 493 0
-437 -581 514 0
-437 -582 535 0
-437 -583 556 0
-437 -584 577 0
-437 -585 598 0
-437 -586 619 0
-437 -587 640 0
-437 -588 661 0
-438 -589 241 0
-438 -590 262 0
-438 -591 283 0
-438 -592 304 0
-438 -593 325 0
-438 -594 346 0
-438 -595 367 0
-438 -596 388 0
-438 -597 409 0
-438 -598 430 0
-438 -599 451 0
-438 -600 472 0
-438 -601 493 0
-438 -602 514 0
-438 -603 535 0
-438 -604 556 0
-438 -605 577 0
-438 -606 598 0
-438 -607 619 0
-438 -608 640 0
-438 -609 661 0
-439 -610 241 0
-439 -611 262 0
-439 -612 283 0
-439 -613 304 0
-439 -614 325 0
-439 -615 346 0
-439 -616 367 0
-439 -617 388 0
-439 -618 409 0
-439 -619 430 0
-439 -620 451 0
-439 -621 472 0
-439 -622 493 0
-439 -623 514 0
-439 -624 535 0
-439 -625 556 0
-439 -626 577 0
-439 -627 598 0
-439 -628 619 0
-439 -629 640 0
-439 -630 661 0
-440 -631 241 0
-440 -632 262 0
-440 -633 283 0
-440 -634 304 0
-440 -635 325 0
-440 -636 346 0
-440 -637 367 0
-440 -638 388 0
-440 -639 409 0
-440 -640 430 0
-440 -641 451 0
-440 -642 472 0
-440 -643 493 0
-440 -644 514 0
-440 -645 535 0
-440 -646 556 0
-440 -647 577 0
-440 -648 598 0
-440 -649 619 0
-440 -650 640 0
-440 -651 661 0
-441 -652 241 0
-441 -653 262 0
-441 -654 283 0
-441 -655 304 0
-441 -656 325 0
-441 -657 346 0
-441 -658 367 0
-441 -659 388 0
-441 -660 409 0
-441 -661 430 0
-441 -662 451 0
-441 -663 472 0
-441 -664 493 0
-441 -665 514 0
-441 -666 535 0
-441 -667 556 0
-441 -668 577 0
-441 -669 598 0
-441 -670 619 0
-441 -671 640 0
-441 -672 661 0
-442 -232 242 0
-442 -233 263 0
-442 -234 284 0
-442 -235 305 0
-442 -236 326 0
-442 -237 347 0
-442 -238 368 0
-442 -239 389 0
-442 -240 410 0
-442 -241 431 0
-442 -242 452 0
-442 -243 473 0
-442 -244 494 0
-442 -245 515 0
-442 -246 536 0
-442 -247 557 0
-442 -248 578 0
-442 -249 599 0
-442 -250 620 0
-442 -251 641 0
-442 -252 662 0
-443 -253 242 0
-443 -254 263 0
-443 -255 284 0
-443 -256 305 0
-443 -257 326 0
-443 -258 347 0
-443 -259 368 0
-443 -260 389 0
-443 -261 410 0
-443 -262 431 0
-443 -263 452 0
-443 -264 473 0
-443 -265 494 0
-443 -266 515 0
-443 -267 536 0
-443 -268 557 0
-443 -269 578 0
-443 -270 599 0
-443 -271 620 0
-443 -272 641 0
-443 -273 662 0
-444 -274 242 0
-444 -275 263 0
-444 -276 284 0
-444 -277 305 0
-444 -278 326 0
-444 -279 347 0
-444 -280 368 0
-444 -281 389 0
-444 -282 410 0
-444 -283 431 0
-444 -284 452 0
-444 -285 473 0
-444 -286 494 0
-444 -287 515 0
-444 -288 536 0
-444 -289 557 0
-444 -290 578 0
-444 -291 599 0
-444 -292 620 0
-444 -293 641 0
-444 -294 662 0
-445 -295 242 0
-445 -296 263 0
-445 -297 284 0
-445 -298 305 0
-445 -299 326 0
-445 -300 347 0
-445 -301 368 0
-445 -302 389 0
-445 -303 410 0
-445 -304 431 0
-445 -305 452 0
-445 -306 473 0
-445 -307 494 0
-445 -308 515 0
-445 -309 536 0
-445 -310 557 0
-445 -311 578 0
-445 -312 599 0
-445 -313 620 0
-445 -314 641 0
-445 -315 662 0
-446 -316 242 0
-446 -317 263 0
-446 -318 284 0
-446 -319 305 0
-446 -320 326 0
-446 -321 347 0
-446 -322 368 0
-446 -323 389 0
-446 -324 410 0
-446 -325 431 0
-446 -326 452 0
-446 -327 473 0
-446 -328 494 0
-446 -329 515 0
-446 -330 536 0
-446 -331 557 0
-446 -332 578 0
-446 -333 599 0
-446 -334 620 0
-446 -335 641 0
-446 -336 662 0
-447 -337 242 0
-447 -338 263 0
-447 -339 284 0
-447 -340 305 0
-447 -341 326 0
-447 -342 347 0
-447 -343 368 0
-447 -344 389 0
-447 -345 410 0
-447 -346 431 0
-447 -347 452 0
-447 -348 473 0
-447 -349 494 0
-447 -350 515 0
-447 -351 536 0
-447 -352 557 0
-447 -353 578 0
-447 -354 599 0
-447 -355 620 0
-447 -356 641 0
-447 -357 662 0
-448 -358 242 0
-448 -359 263 0
-448 -360 284 0
-448 -361 305 0
-448 -362 326 0
-448 -363 347 0
-448 -364 368 0
-448 -365 389 0
-448 -366 410 0
-448 -367 431 0
-448 -368 452 0
-448 -369 473 0
-448 -370 494 0
-448 -371 515 0
-448 -372 536 0
-448 -373 557 0
-448 -374 578 0
-448 -375 599 0
-448 -376 620 0
-448 -377 641 0
-448 -378 662 0
-449 -379 242 0
-449 -380 263 0
-449 -381 284 0
-449 -382 305 0
-449 -383 326 0
-449 -384 347 0
-449 -385 368 0
-449 -386 389 0
-449 -387 410 0
-449 -388 431 0
-449 -389 452 0
-449 -390 473 0
-449 -391 494 0
-449 -392 515 0
-449 -393 536 0
-449 -394 557 0
-449 -395 578 0
-449 -396 599 0
-449 -397 620 0
-449 -398 641 0
-449 -399 662 0
-450 -400 242 0
-450 -401 263 0
-450 -402 284 0
-450 -403 305 0
-450 -404 326 0
-450 -405 347 0
-450 -406 368 0
-450 -407 389 0
-450 -408 410 0
-450 -409 431 0
-450 -410 452 0
-450 -411 473 0
-450 -412 494 0
-450 -413 515 0
-450 -414 536 0
-450 -415 557 0
-450 -416 578 0
-450 -417 599 0
-450 -418 620 0
-450 -419 641 0
-450 -420 662 0
-451 -421 242 0
-451 -422 263 0
-451 -423 284 0
-451 -424 305 0
-451 -425 326 0
-451 -426 347 0
-451 -427 368 0
-451 -428 389 0
-451 -429 410 0
-451 -430 431 0
-451 -431 452 0
-451 -432 473 0
-451 -433 494 0
-451 -434 515 0
-451 -435 536 0
-451 -436 557 0
-451 -437 578 0
-451 -438 599 0
-451 -439 620 0
-451 -440 641 0
-451 -441 662 0
-452 -442 242 0
-452 -443 263 0
-452 -444 284 0
-452 -445 305 0
-452 -446 326 0
-452 -447 347 0
-452 -448 368 0
-452 -449 389 0
-452 -450 410 0
-452 -451 431 0
-452 -452 452 0
-452 -453 473 0
-452 -454 494 0
-452 -455 515 0
-452 -456 536 0
-452 -457 557 0
-452 -458 578 0
-452 -459 599 0
-452 -460 620 0
-452 -461 641 0
-452 -462 662 0
-453 -463 242 0
-453 -464 263 0
-453 -465 284 0
-453 -466 305 0
-453 -467 326 0
-453 -468 347 0
-453 -469 368 0
-453 -470 389 0
-453 -471 410 0
-453 -472 431 0
-453 -473 452 0
-453 -474 473 0
-453 -475 494 0
-453 -476 515 0
-453 -477 536 0
-453 -478 557 0
-453 -479 578 0
-453 -480 599 0
-453 -481 620 0
-453 -482 641 0
-453 -483 662 0
-454 -484 242 0
-454 -485 263 0
-454 -486 284 0
-454 -487 305 0
-454 -488 326 0
-454 -489 347 0
-454 -490 368 0
-454 -491 389 0
-454 -492 410 0
-454 -493 431 0
-454 -494 452 0
-454 -495 473 0
-454 -496 494 0
-454 -497 515 0
-454 -498 536 0
-454 -499 557 0
-454 -500 578 0
-454 -501 599 0
-454 -502 620 0
-454 -503 641 0
-454 -504 662 0
-455 -505 242 0
-455 -506 263 0
-455 -507 284 0
-455 -508 305 0
-455 -509 326 0
-455 -510 347 0
-455 -511 368 0
-455 -512 389 0
-455 -513 410 0
-455 -514 431 0
-455 -515 452 0
-455 -516 473 0
-455 -517 494 0
-455 -518 515 0
-455 -519 536 0
-455 -520 557 0
-455 -521 578 0
-455 -522 599 0
-455 -523 620 0
-455 -524 641 0
-455 -525 662 0
-456 -526 242 0
-456 -527 263 0
-456 -528 284 0
-456 -529 305 0
-456 -530 326 0
-456 -531 347 0
-456 -532 368 0
-456 -533 389 0
-456 -534 410 0
-456 -535 431 0
-456 -536 452 0
-456 -537 473 0
-456 -538 494 0
-456 -539 515 0
-456 -540 536 0
-456 -541 557 0
-456 -542 578 0
-456 -543 599 0
-456 -544 620 0
-456 -545 641 0
-456 -546 662 0
-457 -547 242 0
-457 -548 263 0
-457 -549 284 0
-457 -550 305 0
-457 -551 326 0
-457 -552 347 0
-457 -553 368 0
-457 -554 389 0
-457 -555 410 0
-457 -556 431 0
-457 -557 452 0
-457 -558 473 0
-457 -559 494 0
-457 -560 515 0
-457 -561 536 0
-457 -562 557 0
-457 -563 578 0
-457 -564 599 0
-457 -565 620 0
-457 -566 641 0
-457 -567 662 0
-458 -568 242 0
-458 -569 263 0
-458 -570 284 0
-458 -571 305 0
-458 -572 326 0
-458 -573 347 0
-458 -574 368 0
-458 -575 389 0
-458 -576 410 0
-458 -577 431 0
-458 -578 452 0
-458 -579 473 0
-458 -580 494 0
-458 -581 515 0
-458 -582 536 0
-458 -583 557 0
-458 -584 578 0
-458 -585 599 0
-458 -586 620 0
-458 -587 641 0
-458 -588 662 0
-459 -589 242 0
-459 -590 263 0
-459 -591 284 0
-459 -592 305 0
-459 -593 326 0
-459 -594 347 0
-459 -595 368 0
-459 -596 389 0
-459 -597 410 0
-459 -598 431 0
-459 -599 452 0
-459 -600 473 0
-459 -601 494 0
-459 -602 515 0
-459 -603 536 0
-459 -604 557 0
-459 -605 578 0
-459 -606 599 0
-459 -607 620 0
-459 -608 641 0
-459 -609 662 0
-460 -610 242 0
-460 -611 263 0
-460 -612 284 0
-460 -613 305 0
-460 -614 326 0
-460 -615 347 0
-460 -616 368 0
-460 -617 389 0
-460 -618 410 0
-460 -619 431 0
-460 -620 452 0
-460 -621 473 0
-460 -622 494 0
-460 -623 515 0
-460 -624 536 0
-460 -625 557 0
-460 -626 578 0
-460 -627 599 0
-460 -628 620 0
-460 -629 641 0
-460 -630 662 0
-461 -631 242 0
-461 -632 263 0
-461 -633 284 0
-461 -634 305 0
-461 -635 326 0
-461 -636 347 0
-461 -637 368 0
-461 -638 389 0
-461 -639 410 0
-461 -640 431 0
-461 -641 452 0
-461 -642 473 0
-461 -643 494 0
-461 -644 515 0
-461 -645 536 0
-461 -646 557 0
-461 -647 578 0
-461 -648 599 0
-461 -649 620 0
-461 -650 641 0
-461 -651 662 0
-462 -652 242 0
-462 -653 263 0
-462 -654 284 0
-462 -655 305 0
-462 -656 326 0
-462 -657 347 0
-462 -658 368 0
-462 -659 389 0
-462 -660 410 0
-462 -661 431 0
-462 -662 452 0
-462 -663 473 0
-462 -664 494 0
-462 -665 515 0
-462 -666 536 0
-462 -667 557 0
-462 -668 578 0
-462 -669 599 0
-462 -670 620 0
-462 -671 641 0
-462 -672 662 0
-463 -232 243 0
-463 -233 264 0
-463 -234 285 0
-463 -235 306 0
-463 -236 327 0
-463 -237 348 0
-463 -238 369 0
-463 -239 390 0
-463 -240 411 0
-463 -241 432 0
-463 -242 453 0
-463 -243 474 0
-463 -244 495 0
-463 -245 516 0
-463 -246 537 0
-463 -247 558 0
-463 -248 579 0
-463 -249 600 0
-463 -250 621 0
-463 -251 642 0
-463 -252 663 0
-464 -253 243 0
-464 -254 264 0
-464 -255 285 0
-464 -256 306 0
-464 -257 327 0
-464 -258 348 0
-464 -259 369 0
-464 -260 390 0
-464 -261 411 0
-464 -262 432 0
-464 -263 453 0
-464 -264 474 0
-464 -265 495 0
-464 -266 516 0
-464 -267 537 0
-464 -268 558 0
-464 -269 579 0
-464 -270 600 0
-464 -271 621 0
-464 -272 642 0
-464 -273 663 0
-465 -274 243 0
-465 -275 264 0
-465 -276 285 0
-465 -277 306 0
-465 -278 327 0
-465 -279 348 0
-465 -280 369 0
-465 -281 390 0
-465 -282 411 0
-465 -283 432 0
-465 -284 453 0
-465 -285 474 0
-465 -286 495 0
-465 -287 516 0
-465 -288 537 0
-465 -289 558 0
-465 -290 579 0
-465 -291 600 0
-465 -292 621 0
-465 -293 642 0
-465 -294 663 0
-466 -295 243 0
-466 -296 264 0
-466 -297 285 0
-466 -298 306 0
-466 -299 327 0
-466 -300 348 0
-466 -301 369 0
-466 -302 390 0
-466 -303 411 0
-466 -304 432 0
-466 -305 453 0
-466 -306 474 0
-466 -307 495 0
-466 -308 516 0
-466 -309 537 0
-466 -310 558 0
-466 -311 579 0
-466 -312 600 0
-466 -313 621 0
-466 -314 642 0
-466 -315 663 0
-467 -316 243 0
-467 -317 264 0
-467 -318 285 0
-467 -319 306 0
-467 -320 327 0
-467 -321 348 0
-467 -322 369 0
-467 -323 390 0
-467 -324 411 0
-467 -325 432 0
-467 -326 453 0
-467 -327 474 0
-467 -328 495 0
-467 -329 516 0
-467 -330 537 0
-467 -331 558 0
-467 -332 579 0
-467 -333 600 0
-467 -334 621 0
-467 -335 642 0
-467 -336 663 0
-468 -337 243 0
-468 -338 264 0
-468 -339 285 0
-468 -340 306 0
-468 -341 327 0
-468 -342 348 0
-468 -343 369 0
-468 -344 390 0
-468 -345 411 0
-468 -346 432 0
-468 -347 453 0
-468 -348 474 0
-468 -349 495 0
-468 -350 516 0
-468 -351 537 0
-468 -352 558 0
-468 -353 579 0
-468 -354 600 0
-468 -355 621 0
-468 -356 642 0
-468 -357 663 0
-469 -358 243 0
-469 -359 264 0
-469 -360 285 0
-469 -361 306 0
-469 -362 327 0
-469 -363 348 0
-469 -364 369 0
-469 -365 390 0
-469 -366 411 0
-469 -367 432 0
-469 -368 453 0
-469 -369 474 0
-469 -370 495 0
-469 -371 516 0
-469 -372 537 0
-469 -373 558 0
-469 -374 579 0
-469 -375 600 0
-469 -376 621 0
-469 -377 642 0
-469 -378 663 0
-470 -379 243 0
-470 -380 264 0
-470 -381 285 0
-470 -382 306 0
-470 -383 327 0
-470 -384 348 0
-470 -385 369 0
-470 -386 390 0
-470 -387 411 0
-470 -388 432 0
-470 -389 453 0
-470 -390 474 0
-470 -391 495 0
-470 -392 516 0
-470 -393 537 0
-470 -394 558 0
-470 -395 579 0
-470 -396 600 0
-470 -397 621 0
-470 -398 642 0
-470 -399 663 0
-471 -400 243 0
-471 -401 264 0
-471 -402 285 0
-471 -403 306 0
-471 -404 327 0
-471 -405 348 0
-471 -406 369 0
-471 -407 390 0
-471 -408 411 0
-471 -409 432 0
-471 -410 453 0
-471 -411 474 0
-471 -412 495 0
-471 -413 516 0
-471 -414 537 0
-471 -415 558 0
-471 -416 579 0
-471 -417 600 0
-471 -418 621 0
-471 -419 642 0
-471 -420 663 0
-472 -421 243 0
-472 -422 264 0
-472 -423 285 0
-472 -424 306 0
-472 -425 327 0
-472 -426 348 0
-472 -427 369 0
-472 -428 390 0
-472 -429 411 0
-472 -430 432 0
-472 -431 453 0
-472 -432 474 0
-472 -433 495 0
-472 -434 516 0
-472 -435 537 0
-472 -436 558 0
-472 -437 579 0
-472 -438 600 0
-472 -439 621 0
-472 -440 642 0
-472 -441 663 0
-473 -442 243 0
-473 -443 264 0
-473 -444 285 0
-473 -445 306 0
-473 -446 327 0
-473 -447 348 0
-473 -448 369 0
-473 -449 390 0
-473 -450 411 0
-473 -451 432 0
-473 -452 453 0
-473 -453 474 0
-473 -454 495 0
-473 -455 516 0
-473 -456 537 0
-473 -457 558 0
-473 -458 579 0
-473 -459 600 0
-473 -460 621 0
-473 -461 642 0
-473 -462 663 0
-474 -463 243 0
-474 -464 264 0
-474 -465 285 0
-474 -466 306 0
-474 -467 327 0
-474 -468 348 0
-474 -469 369 0
-474 -470 390 0
-474 -471 411 0
-474 -472 432 0
-474 -473 453 0
-474 -474 474 0
-474 -475 495 0
-474 -476 516 0
-474 -477 537 0
-474 -478 558 0
-474 -479 579 0
-474 -480 600 0
-474 -481 621 0
-474 -482 642 0
-474 -483 663 0
-475 -484 243 0
-475 -485 264 0
-475 -486 285 0
-475 -487 306 0
-475 -488 327 0
-475 -489 348 0
-475 -490 369 0
-475 -491 390 0
-475 -492 411 0
-475 -493 432 0
-475 -494 453 0
-475 -495 474 0
-475 -496 495 0
-475 -497 516 0
-475 -498 537 0
-475 -499 558 0
-475 -500 579 0
-475 -501 600 0
-475 -502 621 0
-475 -503 642 0
-475 -504 663 0
-476 -505 243 0
-476 -506 264 0
-476 -507 285 0
-476 -508 306 0
-476 -509 327 0
-476 -510 348 0
-476 -511 369 0
-476 -512 390 0
-476 -513 411 0
-476 -514 432 0
-476 -515 453 0
-476 -516 474 0
-476 -517 495 0
-476 -518 516 0
-476 -519 537 0
-476 -520 558 0
-476 -521 579 0
-476 -522 600 0
-476 -523 621 0
-476 -524 642 0
-476 -525 663 0
-477 -526 243 0
-477 -527 264 0
-477 -528 285 0
-477 -529 306 0
-477 -530 327 0
-477 -531 348 0
-477 -532 369 0
-477 -533 390 0
-477 -534 411 0
-477 -535 432 0
-477 -536 453 0
-477 -537 474 0
-477 -538 495 0
-477 -539 516 0
-477 -540 537 0
-477 -541 558 0
-477 -542 579 0
-477 -543 600 0
-477 -544 621 0
-477 -545 642 0
-477 -546 663 0
-478 -547 243 0
-478 -548 264 0
-478 -549 285 0
-478 -550 306 0
-478 -551 327 0
-478 -552 348 0
-478 -553 369 0
-478 -554 390 0
-478 -555 411 0
-478 -556 432 0
-478 -557 453 0
-478 -558 474 0
-478 -559 495 0
-478 -560 516 0
-478 -561 537 0
-478 -562 558 0
-478 -563 579 0
-478 -564 600 0
-478 -565 621 0
-478 -566 642 0
-478 -567 663 0
-479 -568 243 0
-479 -569 264 0
-479 -570 285 0
-479 -571 306 0
-479 -572 327 0
-479 -573 348 0
-479 -574 369 0
-479 -575 390 0
-479 -576 411 0
-479 -577 432 0
-479 -578 453 0
-479 -579 474 0
-479 -580 495 0
-479 -581 516 0
-479 -582 537 0
-479 -583 558 0
-479 -584 579 0
-479 -585 600 0
-479 -586 621 0
-479 -587 642 0
-479 -588 663 0
-480 -589 243 0
-480 -590 264 0
-480 -591 285 0
-480 -592 306 0
-480 -593 327 0
-480 -594 348 0
-480 -595 369 0
-480 -596 390 0
-480 -597 411 0
-480 -598 432 0
-480 -599 453 0
-480 -600 474 0
-480 -601 495 0
-480 -602 516 0
-480 -603 537 0
-480 -604 558 0
-480 -605 579 0
-480 -606 600 0
-480 -607 621 0
-480 -608 642 0
-480 -609 663 0
-481 -610 243 0
-481 -611 264 0
-481 -612 285 0
-481 -613 306 0
-481 -614 327 0
-481 -615 348 0
-481 -616 369 0
-481 -617 390 0
-481 -618 411 0
-481 -619 432 0
-481 -620 453 0
-481 -621 474 0
-481 -622 495 0
-481 -623 516 0
-481 -624 537 0
-481 -625 558 0
-481 -626 579 0
-481 -627 600 0
-481 -628 621 0
-481 -629 642 0
-481 -630 663 0
-482 -631 243 0
-482 -632 264 0
-482 -633 285 0
-482 -634 306 0
-482 -635 327 0
-482 -636 348 0
-482 -637 369 0
-482 -638 390 0
-482 -639 411 0
-482 -640 432 0
-482 -641 453 0
-482 -642 474 0
-482 -643 495 0
-482 -644 516 0
-482 -645 537 0
-482 -646 558 0
-482 -647 579 0
-482 -648 600 0
-482 -649 621 0
-482 -650 642 0
-482 -651 663 0
-483 -652 243 0
-483 -653 264 0
-483 -654 285 0
-483 -655 306 0
-483 -656 327 0
-483 -657 348 0
-483 -658 369 0
-483 -659 390 0
-483 -660 411 0
-483 -661 432 0
-483 -662 453 0
-483 -663 474 0
-483 -664 495 0
-483 -665 516 0
-483 -666 537 0
-483 -667 558 0
-483 -668 579 0
-483 -669 600 0
-483 -670 621 0
-483 -671 642 0
-483 -672 663 0
-484 -232 244 0
-484 -233 265 0
-484 -234 286 0
-484 -235 307 0
-484 -236 328 0
-484 -237 349 0
-484 -238 370 0
-484 -239 391 0
-484 -240 412 0
-484 -241 433 0
-484 -242 454 0
-484 -243 475 0
-484 -244 496 0
-484 -245 517 0
-484 -246 538 0
-484 -247 559 0
-484 -248 580 0
-484 -249 601 0
-484 -250 622 0
-484 -251 643 0
-484 -252 664 0
-485 -253 244 0
-485 -254 265 0
-485 -255 286 0
-485 -256 307 0
-485 -257 328 0
-485 -258 349 0
-485 -259 370 0
-485 -260 391 0
-485 -261 412 0
-485 -262 433 0
-485 -263 454 0
-485 -264 475 0
-485 -265 496 0
-485 -266 517 0
-485 -267 538 0
-485 -268 559 0
-485 -269 580 0
-485 -270 601 0
-485 -271 622 0
-485 -272 643 0
-485 -273 664 0
-486 -274 244 0
-486 -275 265 0
-486 -276 286 0
-486 -277 307 0
-486 -278 328 0
-486 -279 349 0
-486 -280 370 0
-486 -281 391 0
-486 -282 412 0
-486 -283 433 0
-486 -284 454 0
-486 -285 475 0
-486 -286 496 0
-486 -287 517 0
-486 -288 538 0
-486 -289 559 0
-486 -290 580 0
-486 -291 601 0
-486 -292 622 0
-486 -293 643 0
-486 -294 664 0
-487 -295 244 0
-487 -296 265 0
-487 -297 286 0
-487 -298 307 0
-487 -299 328 0
-487 -300 349 0
-487 -301 370 0
-487 -302 391 0
-487 -303 412 0
-487 -304 433 0
-487 -305 454 0
-487 -306 475 0
-487 -307 496 0
-487 -308 517 0
-487 -309 538 0
-487 -310 559 0
-487 -311 580 0
-487 -312 601 0
-487 -313 622 0
-487 -314 643 0
-487 -315 664 0
-488 -316 244 0
-488 -317 265 0
-488 -318 286 0
-488 -319 307 0
-488 -320 328 0
-488 -321 349 0
-488 -322 370 0
-488 -323 391 0
-488 -324 412 0
-488 -325 433 0
-488 -326 454 0
-488 -327 475 0
-488 -328 496 0
-488 -329 517 0
-488 -330 538 0
-488 -331 559 0
-488 -332 580 0
-488 -333 601 0
-488 -334 622 0
-488 -335 643 0
-488 -336 664 0
-489 -337 244 0
-489 -338 265 0
-489 -339 286 0
-489 -340 307 0
-489 -341 328 0
-489 -342 349 0
-489 -343 370 0
-489 -344 391 0
-489 -345 412 0
-489 -346 433 0
-489 -347 454 0
-489 -348 475 0
-489 -349 496 0
-489 -350 517 0
-489 -351 538 0
-489 -352 559 0
-489 -353 580 0
-489 -354 601 0
-489 -355 622 0
-489 -356 643 0
-489 -357 664 0
-490 -358 244 0
-490 -359 265 0
-490 -360 286 0
-490 -361 307 0
-490 -362 328 0
-490 -363 349 0
-490 -364 370 0
-490 -365 391 0
-490 -366 412 0
-490 -367 433 0
-490 -368 454 0
-490 -369 475 0
-490 -370 496 0
-490 -371 517 0
-490 -372 538 0
-490 -373 559 0
-490 -374 580 0
-490 -375 601 0
-490 -376 622 0
-490 -377 643 0
-490 -378 664 0
-491 -379 244 0
-491 -380 265 0
-491 -381 286 0
-491 -382 307 0
-491 -383 328 0
-491 -384 349 0
-491 -385 370 0
-491 -386 391 0
-491 -387 412 0
-491 -388 433 0
-491 -389 454 0
-491 -390 475 0
-491 -391 496 0
-491 -392 517 0
-491 -393 538 0
-491 -394 559 0
-491 -395 580 0
-491 -396 601 0
-491 -397 622 0
-491 -398 643 0
-491 -399 664 0
-492 -400 244 0
-492 -401 265 0
-492 -402 286 0
-492 -403 307 0
-492 -404 328 0
-492 -405 349 0
-492 -406 370 0
-492 -407 391 0
-492 -408 412 0
-492 -409 433 0
-492 -410 454 0
-492 -411 475 0
-492 -412 496 0
-492 -413 517 0
-492 -414 538 0
-492 -415 559 0
-492 -416 580 0
-492 -417 601 0
-492 -418 622 0
-492 -419 643 0
-492 -420 664 0
-493 -421 244 0
-493 -422 265 0
-493 -423 286 0
-493 -424 307 0
-493 -425 328 0
-493 -426 349 0
-493 -427 370 0
-493 -428 391 0
-493 -429 412 0
-493 -430 433 0
-493 -431 454 0
-493 -432 475 0
-493 -433 496 0
-493 -434 517 0
-493 -435 538 0
-493 -436 559 0
-493 -437 580 0
-493 -438 601 0
-493 -439 622 0
-493 -440 643 0
-493 -441 664 0
-494 -442 244 0
-494 -443 265 0
-494 -444 286 0
-494 -445 307 0
-494 -446 328 0
-494 -447 349 0
-494 -448 370 0
-494 -449 391 0
-494 -450 412 0
-494 -451 433 0
-494 -452 454 0
-494 -453 475 0
-494 -454 496 0
-494 -455 517 0
-494 -456 538 0
-494 -457 559 0
-494 -458 580 0
-494 -459 601 0
-494 -460 622 0
-494 -461 643 0
-494 -462 664 0
-495 -463 244 0
-495 -464 265 0
-495 -465 286 0
-495 -466 307 0
-495 -467 328 0
-495 -468 349 0
-495 -469 370 0
-495 -470 391 0
-495 -471 412 0
-495 -472 433 0
-495 -473 454 0
-495 -474 475 0
-495 -475 496 0
-495 -476 517 0
-495 -477 538 0
-495 -478 559 0
-495 -479 580 0
-495 -480 601 0
-495 -481 622 0
-495 -482 643 0
-495 -483 664 0
-496 -484 244 0
-496 -485 265 0
-496 -486 286 0
-496 -487 307 0
-496 -488 328 0
-496 -489 349 0
-496 -490 370 0
-496 -491 391 0
-496 -492 412 0
-496 -493 433 0
-496 -494 454 0
-496 -495 475 0
-496 -496 496 0
-496 -497 517 0
-496 -498 538 0
-496 -499 559 0
-496 -500 580 0
-496 -501 601 0
-496 -502 622 0
-496 -503 643 0
-496 -504 664 0
-497 -505 244 0
-497 -506 265 0
-497 -507 286 0
-497 -508 307 0
-497 -509 328 0
-497 -510 349 0
-497 -511 370 0
-497 -512 391 0
-497 -513 412 0
-497 -514 433 0
-497 -515 454 0
-497 -516 475 0
-497 -517 496 0
-497 -518 517 0
-497 -519 538 0
-497 -520 559 0
-497 -521 580 0
-497 -522 601 0
-497 -523 622 0
-497 -524 643 0
-497 -525 664 0
-498 -526 244 0
-498 -527 265 0
-498 -528 286 0
-498 -529 307 0
-498 -530 328 0
-498 -531 349 0
-498 -532 370 0
-498 -533 391 0
-498 -534 412 0
-498 -535 433 0
-498 -536 454 0
-498 -537 475 0
-498 -538 496 0
-498 -539 517 0
-498 -540 538 0
-498 -541 559 0
-498 -542 580 0
-498 -543 601 0
-498 -544 622 0
-498 -545 643 0
-498 -546 664 0
-499 -547 244 0
-499 -548 265 0
-499 -549 286 0
-499 -550 307 0
-499 -551 328 0
-499 -552 349 0
-499 -553 370 0
-499 -554 391 0
-499 -555 412 0
-499 -556 433 0
-499 -557 454 0
-499 -558 475 0
-499 -559 496 0
-499 -560 517 0
-499 -561 538 0
-499 -562 559 0
-499 -563 580 0
-499 -564 601 0
-499 -565 622 0
-499 -566 643 0
-499 -567 664 0
-500 -568 244 0
-500 -569 265 0
-500 -570 286 0
-500 -571 307 0
-500 -572 328 0
-500 -573 349 0
-500 -574 370 0
-500 -575 391 0
-500 -576 412 0
-500 -577 433 0
-500 -578 454 0
-500 -579 475 0
-500 -580 496 0
-500 -581 517 0
-500 -582 538 0
-500 -583 559 0
-500 -584 580 0
-500 -585 601 0
-500 -586 622 0
-500 -587 643 0
-500 -588 664 0
-501 -589 244 0
-501 -590 265 0
-501 -591 286 0
-501 -592 307 0
-501 -593 328 0
-501 -594 349 0
-501 -595 370 0
-501 -596 391 0
-501 -597 412 0
-501 -598 433 0
-501 -599 454 0
-501 -600 475 0
-501 -601 496 0
-501 -602 517 0
-501 -603 538 0
-501 -604 559 0
-501 -605 580 0
-501 -606 601 0
-501 -607 622 0
-501 -608 643 0
-501 -609 664 0
-502 -610 244 0
-502 -611 265 0
-502 -612 286 0
-502 -613 307 0
-502 -614 328 0
-502 -615 349 0
-502 -616 370 0
-502 -617 391 0
-502 -618 412 0
-502 -619 433 0
-502 -620 454 0
-502 -621 475 0
-502 -622 496 0
-502 -623 517 0
-502 -624 538 0
-502 -625 559 0
-502 -626 580 0
-502 -627 601 0
-502 -628 622 0
-502 -629 643 0
-502 -630 664 0
-503 -631 244 0
-503 -632 265 0
-503 -633 286 0
-503 -634 307 0
-503 -635 328 0
-503 -636 349 0
-503 -637 370 0
-503 -638 391 0
-503 -639 412 0
-503 -640 433 0
-503 -641 454 0
-503 -642 475 0
-503 -643 496 0
-503 -644 517 0
-503 -645 538 0
-503 -646 559 0
-503 -647 580 0
-503 -648 601 0
-503 -649 622 0
-503 -650 643 0
-503 -651 664 0
-504 -652 244 0
-504 -653 265 0
-504 -654 286 0
-504 -655 307 0
-504 -656 328 0
-504 -657 349 0
-504 -658 370 0
-504 -659 391 0
-504 -660 412 0
-504 -661 433 0
-504 -662 454 0
-504 -663 475 0
-504 -664 496 0
-504 -665 517 0
-504 -666 538 0
-504 -667 559 0
-504 -668 580 0
-504 -669 601 0
-504 -670 622 0
-504 -671 643 0
-504 -672 664 0
-505 -232 245 0
-505 -233 266 0
-505 -234 287 0
-505 -235 308 0
-505 -236 329 0
-505 -237 350 0
-505 -238 371 0
-505 -239 392 0
-505 -240 413 0
-505 -241 434 0
-505 -242 455 0
-505 -243 476 0
-505 -244 497 0
-505 -245 518 0
-505 -246 539 0
-505 -247 560 0
-505 -248 581 0
-505 -249 602 0
-505 -250 623 0
-505 -251 644 0
-505 -252 665 0
-506 -253 245 0
-506 -254 266 0
-506 -255 287 0
-506 -256 308 0
-506 -257 329 0
-506 -258 350 0
-506 -259 371 0
-506 -260 392 0
-506 -261 413 0
-506 -262 434 0
-506 -263 455 0
-506 -264 476 0
-506 -265 497 0
-506 -266 518 0
-506 -267 539 0
-506 -268 560 0
-506 -269 581 0
-506 -270 602 0
-506 -271 623 0
-506 -272 644 0
-506 -273 665 0
-507 -274 245 0
-507 -275 266 0
-507 -276 287 0
-507 -277 308 0
-507 -278 329 0
-507 -279 350 0
-507 -280 371 0
-507 -281 392 0
-507 -282 413 0
-507 -283 434 0
-507 -284 455 0
-507 -285 476 0
-507 -286 497 0
-507 -287 518 0
-507 -288 539 0
-507 -289 560 0
-507 -290 581 0
-507 -291 602 0
-507 -292 623 0
-507 -293 644 0
-507 -294 665 0
-508 -295 245 0
-508 -296 266 0
-508 -297 287 0
-508 -298 308 0
-508 -299 329 0
-508 -300 350 0
-508 -301 371 0
-508 -302 392 0
-508 -303 413 0
-508 -304 434 0
-508 -305 455 0
-508 -306 476 0
-508 -307 497 0
-508 -308 518 0
-508 -309 539 0
-508 -310 560 0
-508 -311 581 0
-508 -312 602 0
-508 -313 623 0
-508 -314 644 0
-508 -315 665 0
-509 -316 245 0
-509 -317 266 0
-509 -318 287 0
-509 -319 308 0
-509 -320 329 0
-509 -321 350 0
-509 -322 371 0
-509 -323 392 0
-509 -324 413 0
-509 -325 434 0
-509 -326 455 0
-509 -327 476 0
-509 -328 497 0
-509 -329 518 0
-509 -330 539 0
-509 -331 560 0
-509 -332 581 0
-509 -333 602 0
-509 -334 623 0
-509 -335 644 0
-509 -336 665 0
-510 -337 245 0
-510 -338 266 0
-510 -339 287 0
-510 -340 308 0
-510 -341 329 0
-510 -342 350 0
-510 -343 371 0
-510 -344 392 0
-510 -345 413 0
-510 -346 434 0
-510 -347 455 0
-510 -348 476 0
-510 -349 497 0
-510 -350 518 0
-510 -351 539 0
-510 -352 560 0
-510 -353 581 0
-510 -354 602 0
-510 -355 623 0
-510 -356 644 0
-510 -357 665 0
-511 -358 245 0
-511 -359 266 0
-511 -360 287 0
-511 -361 308 0
-511 -362 329 0
-511 -363 350 0
-511 -364 371 0
-511 -365 392 0
-511 -366 413 0
-511 -367 434 0
-511 -368 455 0
-511 -369 476 0
-511 -370 497 0
-511 -371 518 0
-511 -372 539 0
-511 -373 560 0
-511 -374 581 0
-511 -375 602 0
-511 -376 623 0
-511 -377 644 0
-511 -378 665 0
-512 -379 245 0
-512 -380 266 0
-512 -381 287 0
-512 -382 308 0
-512 -383 329 0
-512 -384 350 0
-512 -385 371 0
-512 -386 392 0
-512 -387 413 0
-512 -388 434 0
-512 -389 455 0
-512 -390 476 0
-512 -391 497 0
-512 -392 518 0
-512 -393 539 0
-512 -394 560 0
-512 -395 581 0
-512 -396 602 0
-512 -397 623 0
-512 -398 644 0
-512 -399 665 0
-513 -400 245 0
-513 -401 266 0
-513 -402 287 0
-513 -403 308 0
-513 -404 329 0
-513 -405 350 0
-513 -406 371 0
-513 -407 392 0
-513 -408 413 0
-513 -409 434 0
-513 -410 455 0
-513 -411 476 0
-513 -412 497 0
-513 -413 518 0
-513 -414 539 0
-513 -415 560 0
-513 -416 581 0
-513 -417 602 0
-513 -418 623 0
-513 -419 644 0
-513 -420 665 0
-514 -421 245 0
-514 -422 266 0
-514 -423 287 0
-514 -424 308 0
-514 -425 329 0
-514 -426 350 0
-514 -427 371 0
-514 -428 392 0
-514 -429 413 0
-514 -430 434 0
-514 -431 455 0
-514 -432 476 0
-514 -433 497 0
-514 -434 518 0
-514 -435 539 0
-514 -436 560 0
-514 -437 581 0
-514 -438 602 0
-514 -439 623 0
-514 -440 644 0
-514 -441 665 0
-515 -442 245 0
-515 -443 266 0
-515 -444 287 0
-515 -445 308 0
-515 -446 329 0
-515 -447 350 0
-515 -448 371 0
-515 -449 392 0
-515 -450 413 0
-515 -451 434 0
-515 -452 455 0
-515 -453 476 0
-515 -454 497 0
-515 -455 518 0
-515 -456 539 0
-515 -457 560 0
-515 -458 581 0
-515 -459 602 0
-515 -460 623 0
-515 -461 644 0
-515 -462 665 0
-516 -463 245 0
-516 -464 266 0
-516 -465 287 0
-516 -466 308 0
-516 -467 329 0
-516 -468 350 0
-516 -469 371 0
-516 -470 392 0
-516 -471 413 0
-516 -472 434 0
-516 -473 455 0
-516 -474 476 0
-516 -475 497 0
-516 -476 518 0
-516 -477 539 0
-516 -478 560 0
-516 -479 581 0
-516 -480 602 0
-516 -481 623 0
-516 -482 644 0
-516 -483 665 0
-517 -484 245 0
-517 -485 266 0
-517 -486 287 0
-517 -487 308 0
-517 -488 329 0
-517 -489 350 0
-517 -490 371 0
-517 -491 392 0
-517 -492 413 0
-517 -493 434 0
-517 -494 455 0
-517 -495 476 0
-517 -496 497 0
-517 -497 518 0
-517 -498 539 0
-517 -499 560 0
-517 -500 581 0
-517 -501 602 0
-517 -502 623 0
-517 -503 644 0
-517 -504 665 0
-518 -505 245 0
-518 -506 266 0
-518 -507 287 0
-518 -508 308 0
-518 -509 329 0
-518 -510 350 0
-518 -511 371 0
-518 -512 392 0
-518 -513 413 0
-518 -514 434 0
-518 -515 455 0
-518 -516 476 0
-518 -517 497 0
-518 -518 518 0
-518 -519 539 0
-518 -520 560 0
-518 -521 581 0
-518 -522 602 0
-518 -523 623 0
-518 -524 644 0
-518 -525 665 0
-519 -526 245 0
-519 -527 266 0
-519 -528 287 0
-519 -529 308 0
-519 -530 329 0
-519 -531 350 0
-519 -532 371 0
-519 -533 392 0
-519 -534 413 0
-519 -535 434 0
-519 -536 455 0
-519 -537 476 0
-519 -538 497 0
-519 -539 518 0
-519 -540 539 0
-519 -541 560 0
-519 -542 581 0
-519 -543 602 0
-519 -544 623 0
-519 -545 644 0
-519 -546 665 0
-520 -547 245 0
-520 -548 266 0
-520 -549 287 0
-520 -550 308 0
-520 -551 329 0
-520 -552 350 0
-520 -553 371 0
-520 -554 392 0
-520 -555 413 0
-520 -556 434 0
-520 -557 455 0
-520 -558 476 0
-520 -559 497 0
-520 -560 518 0
-520 -561 539 0
-520 -562 560 0
-520 -563 581 0
-520 -564 602 0
-520 -565 623 0
-520 -566 644 0
-520 -567 665 0
-521 -568 245 0
-521 -569 266 0
-521 -570 287 0
-521 -571 308 0
-521 -572 329 0
-521 -573 350 0
-521 -574 371 0
-521 -575 392 0
-521 -576 413 0
-521 -577 434 0
-521 -578 455 0
-521 -579 476 0
-521 -580 497 0
-521 -581 518 0
-521 -582 539 0
-521 -583 560 0
-521 -584 581 0
-521 -585 602 0
-521 -586 623 0
-521 -587 644 0
-521 -588 665 0
-522 -589 245 0
-522 -590 266 0
-522 -591 287 0
-522 -592 308 0
-522 -593 329 0
-522 -594 350 0
-522 -595 371 0
-522 -596 392 0
-522 -597 413 0
-522 -598 434 0
-522 -599 455 0
-522 -600 476 0
-522 -601 497 0
-522 -602 518 0
-522 -603 539 0
-522 -604 560 0
-522 -605 581 0
-522 -606 602 0
-522 -607 623 0
-522 -608 644 0
-522 -609 665 0
-523 -610 245 0
-523 -611 266 0
-523 -612 287 0
-523 -613 308 0
-523 -614 329 0
-523 -615 350 0
-523 -616 371 0
-523 -617 392 0
-523 -618 413 0
-523 -619 434 0
-523 -620 455 0
-523 -621 476 0
-523 -622 497 0
-523 -623 518 0
-523 -624 539 0
-523 -625 560 0
-523 -626 581 0
-523 -627 602 0
-523 -628 623 0
-523 -629 644 0
-523 -630 665 0
-524 -631 245 0
-524 -632 266 0
-524 -633 287 0
-524 -634 308 0
-524 -635 329 0
-524 -636 350 0
-524 -637 371 0
-524 -638 392 0
-524 -639 413 0
-524 -640 434 0
-524 -641 455 0
-524 -642 476 0
-524 -643 497 0
-524 -644 518 0
-524 -645 539 0
-524 -646 560 0
-524 -647 581 0
-524 -648 602 0
-524 -649 623 0
-524 -650 644 0
-524 -651 665 0
-525 -652 245 0
-525 -653 266 0
-525 -654 287 0
-525 -655 308 0
-525 -656 329 0
-525 -657 350 0
-525 -658 371 0
-525 -659 392 0
-525 -660 413 0
-525 -661 434 0
-525 -662 455 0
-525 -663 476 0
-525 -664 497 0
-525 -665 518 0
-525 -666 539 0
-525 -667 560 0
-525 -668 581 0
-525 -669 602 0
-525 -670 623 0
-525 -671 644 0
-525 -672 665 0
-526 -232 246 0
-526 -233 267 0
-526 -234 288 0
-526 -235 309 0
-526 -236 330 0
-526 -237 351 0
-526 -238 372 0
-526 -239 393 0
-526 -240 414 0
-526 -241 435 0
-526 -242 456 0
-526 -243 477 0
-526 -244 498 0
-526 -245 519 0
-526 -246 540 0
-526 -247 561 0
-526 -248 582 0
-526 -249 603 0
-526 -250 624 0
-526 -251 645 0
-526 -252 666 0
-527 -253 246 0
-527 -254 267 0
-527 -255 288 0
-527 -256 309 0
-527 -257 330 0
-527 -258 351 0
-527 -259 372 0
-527 -260 393 0
-527 -261 414 0
-527 -262 435 0
-527 -263 456 0
-527 -264 477 0
-527 -265 498 0
-527 -266 519 0
-527 -267 540 0
-527 -268 561 0
-527 -269 582 0
-527 -270 603 0
-527 -271 624 0
-527 -272 645 0
-527 -273 666 0
-528 -274 246 0
-528 -275 267 0
-528 -276 288 0
-528 -277 309 0
-528 -278 330 0
-528 -279 351 0
-528 -280 372 0
-528 -281 393 0
-528 -282 414 0
-528 -283 435 0
-528 -284 456 0
-528 -285 477 0
-528 -286 498 0
-528 -287 519 0
-528 -288 540 0
-528 -289 561 0
-528 -290 582 0
-528 -291 603 0
-528 -292 624 0
-528 -293 645 0
-528 -294 666 0
-529 -295 246 0
-529 -296 267 0
-529 -297 288 0
-529 -298 309 0
-529 -299 330 0
-529 -300 351 0
-529 -301 372 0
-529 -302 393 0
-529 -303 414 0
-529 -304 435 0
-529 -305 456 0
-529 -306 477 0
-529 -307 498 0
-529 -308 519 0
-529 -309 540 0
-529 -310 561 0
-529 -311 582 0
-529 -312 603 0
-529 -313 624 0
-529 -314 645 0
-529 -315 666 0
-530 -316 246 0
-530 -317 267 0
-530 -318 288 0
-530 -319 309 0
-530 -320 330 0
-530 -321 351 0
-530 -322 372 0
-530 -323 393 0
-530 -324 414 0
-530 -325 435 0
-530 -326 456 0
-530 -327 477 0
-530 -328 498 0
-530 -329 519 0
-530 -330 540 0
-530 -331 561 0
-530 -332 582 0
-530 -333 603 0
-530 -334 624 0
-530 -335 645 0
-530 -336 666 0
-531 -337 246 0
-531 -338 267 0
-531 -339 288 0
-531 -340 309 0
-531 -341 330 0
-531 -342 351 0
-531 -343 372 0
-531 -344 393 0
-531 -345 414 0
-531 -346 435 0
-531 -347 456 0
-531 -348 477 0
-531 -349 498 0
-531 -350 519 0
-531 -351 540 0
-531 -352 561 0
-531 -353 582 0
-531 -354 603 0
-531 -355 624 0
-531 -356 645 0
-531 -357 666 0
-532 -358 246 0
-532 -359 267 0
-532 -360 288 0
-532 -361 309 0
-532 -362 330 0
-532 -363 351 0
-532 -364 372 0
-532 -365 393 0
-532 -366 414 0
-532 -367 435 0
-532 -368 456 0
-532 -369 477 0
-532 -370 498 0
-532 -371 519 0
-532 -372 540 0
-532 -373 561 0
-532 -374 582 0
-532 -375 603 0
-532 -376 624 0
-532 -377 645 0
-532 -378 666 0
-533 -379 246 0
-533 -380 267 0
-533 -381 288 0
-533 -382 309 0
-533 -383 330 0
-533 -384 351 0
-533 -385 372 0
-533 -386 393 0
-533 -387 414 0
-533 -388 435 0
-533 -389 456 0
-533 -390 477 0
-533 -391 498 0
-533 -392 519 0
-533 -393 540 0
-533 -394 561 0
-533 -395 582 0
-533 -396 603 0
-533 -397 624 0
-533 -398 645 0
-533 -399 666 0
-534 -400 246 0
-534 -401 267 0
-534 -402 288 0
-534 -403 309 0
-534 -404 330 0
-534 -405 351 0
-534 -406 372 0
-534 -407 393 0
-534 -408 414 0
-534 -409 435 0
-534 -410 456 0
-534 -411 477 0
-534 -412 498 0
-534 -413 519 0
-534 -414 540 0
-534 -415 561 0
-534 -416 582 0
-534 -417 603 0
-534 -418 624 0
-534 -419 645 0
-534 -420 666 0
-535 -421 246 0
-535 -422 267 0
-535 -423 288 0
-535 -424 309 0
-535 -425 330 0
-535 -426 351 0
-535 -427 372 0
-535 -428 393 0
-535 -429 414 0
-535 -430 435 0
-535 -431 456 0
-535 -432 477 0
-535 -433 498 0
-535 -434 519 0
-535 -435 540 0
-535 -436 561 0
-535 -437 582 0
-535 -438 603 0
-535 -439 624 0
-535 -440 645 0
-535 -441 666 0
-536 -442 246 0
-536 -443 267 0
-536 -444 288 0
-536 -445 309 0
-536 -446 330 0
-536 -447 351 0
-536 -448 372 0
-536 -449 393 0
-536 -450 414 0
-536 -451 435 0
-536 -452 456 0
-536 -453 477 0
-536 -454 498 0
-536 -455 519 0
-536 -456 540 0
-536 -457 561 0
-536 -458 582 0
-536 -459 603 0
-536 -460 624 0
-536 -461 645 0
-536 -462 666 0
-537 -463 246 0
-537 -464 267 0
-537 -465 288 0
-537 -466 309 0
-537 -467 330 0
-537 -468 351 0
-537 -469 372 0
-537 -470 393 0
-537 -471 414 0
-537 -472 435 0
-537 -473 456 0
-537 -474 477 0
-537 -475 498 0
-537 -476 519 0
-537 -477 540 0
-537 -478 561 0
-537 -479 582 0
-537 -480 603 0
-537 -481 624 0
-537 -482 645 0
-537 -483 666 0
-538 -484 246 0
-538 -485 267 0
-538 -486 288 0
-538 -487 309 0
-538 -488 330 0
-538 -489 351 0
-538 -490 372 0
-538 -491 393 0
-538 -492 414 0
-538 -493 435 0
-538 -494 456 0
-538 -495 477 0
-538 -496 498 0
-538 -497 519 0
-538 -498 540 0
-538 -499 561 0
-538 -500 582 0
-538 -501 603 0
-538 -502 624 0
-538 -503 645 0
-538 -504 666 0
-539 -505 246 0
-539 -506 267 0
-539 -507 288 0
-539 -508 309 0
-539 -509 330 0
-539 -510 351 0
-539 -511 372 0
-539 -512 393 0
-539 -513 414 0
-539 -514 435 0
-539 -515 456 0
-539 -516 477 0
-539 -517 498 0
-539 -518 519 0
-539 -519 540 0
-539 -520 561 0
-539 -521 582 0
-539 -522 603 0
-539 -523 624 0
-539 -524 645 0
-539 -525 666 0
-540 -526 246 0
-540 -527 267 0
-540 -528 288 0
-540 -529 309 0
-540 -530 330 0
-540 -531 351 0
-540 -532 372 0
-540 -533 393 0
-540 -534 414 0
-540 -535 435 0
-540 -536 456 0
-540 -537 477 0
-540 -538 498 0
-540 -539 519 0
-540 -540 540 0
-540 -541 561 0
-540 -542 582 0
-540 -543 603 0
-540 -544 624 0
-540 -545 645 0
-540 -546 666 0
-541 -547 246 0
-541 -548 267 0
-541 -549 288 0
-541 -550 309 0
-541 -551 330 0
-541 -552 351 0
-541 -553 372 0
-541 -554 393 0
-541 -555 414 0
-541 -556 435 0
-541 -557 456 0
-541 -558 477 0
-541 -559 498 0
-541 -560 519 0
-541 -561 540 0
-541 -562 561 0
-541 -563 582 0
-541 -564 603 0
-541 -565 624 0
-541 -566 645 0
-541 -567 666 0
-542 -568 246 0
-542 -569 267 0
-542 -570 288 0
-542 -571 309 0
-542 -572 330 0
-542 -573 351 0
-542 -574 372 0
-542 -575 393 0
-542 -576 414 0
-542 -577 435 0
-542 -578 456 0
-542 -579 477 0
-542 -580 498 0
-542 -581 519 0
-542 -582 540 0
-542 -583 561 0
-542 -584 582 0
-542 -585 603 0
-542 -586 624 0
-542 -587 645 0
-542 -588 666 0
-543 -589 246 0
-543 -590 267 0
-543 -591 288 0
-543 -592 309 0
-543 -593 330 0
-543 -594 351 0
-543 -595 372 0
-543 -596 393 0
-543 -597 414 0
-543 -598 435 0
-543 -599 456 0
-543 -600 477 0
-543 -601 498 0
-543 -602 519 0
-543 -603 540 0
-543 -604 561 0
-543 -605 582 0
-543 -606 603 0
-543 -607 624 0
-543 -608 645 0
-543 -609 666 0
-544 -610 246 0
-544 -611 267 0
-544 -612 288 0
-544 -613 309 0
-544 -614 330 0
-544 -615 351 0
-544 -616 372 0
-544 -617 393 0
-544 -618 414 0
-544 -619 435 0
-544 -620 456 0
-544 -621 477 0
-544 -622 498 0
-544 -623 519 0
-544 -624 540 0
-544 -625 561 0
-544 -626 582 0
-544 -627 603 0
-544 -628 624 0
-544 -629 645 0
-544 -630 666 0
-545 -631 246 0
-545 -632 267 0
-545 -633 288 0
-545 -634 309 0
-545 -635 330 0
-545 -636 351 0
-545 -637 372 0
-545 -638 393 0
-545 -639 414 0
-545 -640 435 0
-545 -641 456 0
-545 -642 477 0
-545 -643 498 0
-545 -644 519 0
-545 -645 540 0
-545 -646 561 0
-545 -647 582 0
-545 -648 603 0
-545 -649 624 0
-545 -650 645 0
-545 -651 666 0
-546 -652 246 0
-546 -653 267 0
-546 -654 288 0
-546 -655 309 0
-546 -656 330 0
-546 -657 351 0
-546 -658 372 0
-546 -659 393 0
-546 -660 414 0
-546 -661 435 0
-546 -662 456 0
-546 -663 477 0
-546 -664 498 0
-546 -665 519 0
-546 -666 540 0
-546 -667 561 0
-546 -668 582 0
-546 -669 603 0
-546 -670 624 0
-546 -671 645 0
-546 -672 666 0
-547 -232 247 0
-547 -233 268 0
-547 -234 289 0
-547 -235 310 0
-547 -236 331 0
-547 -237 352 0
-547 -238 373 0
-547 -239 394 0
-547 -240 415 0
-547 -241 436 0
-547 -242 457 0
-547 -243 478 0
-547 -244 499 0
-547 -245 520 0
-547 -246 541 0
-547 -247 562 0
-547 -248 583 0
-547 -249 604 0
-547 -250 625 0
-547 -251 646 0
-547 -252 667 0
-548 -253 247 0
-548 -254 268 0
-548 -255 289 0
-548 -256 310 0
-548 -257 331 0
-548 -258 352 0
-548 -259 373 0
-548 -260 394 0
-548 -261 415 0
-548 -262 436 0
-548 -263 457 0
-548 -264 478 0
-548 -265 499 0
-548 -266 520 0
-548 -267 541 0
-548 -268 562 0
-548 -269 583 0
-548 -270 604 0
-548 -271 625 0
-548 -272 646 0
-548 -273 667 0
-549 -274 247 0
-549 -275 268 0
-549 -276 289 0
-549 -277 310 0
-549 -278 331 0
-549 -279 352 0
-549 -280 373 0
-549 -281 394 0
-549 -282 415 0
-549 -283 436 0
-549 -284 457 0
-549 -285 478 0
-549 -286 499 0
-549 -287 520 0
-549 -288 541 0
-549 -289 562 0
-549 -290 583 0
-549 -291 604 0
-549 -292 625 0
-549 -293 646 0
-549 -294 667 0
-550 -295 247 0
-550 -296 268 0
-550 -297 289 0
-550 -298 310 0
-550 -299 331 0
-550 -300 352 0
-550 -301 373 0
-550 -302 394 0
-550 -303 415 0
-550 -304 436 0
-550 -305 457 0
-550 -306 478 0
-550 -307 499 0
-550 -308 520 0
-550 -309 541 0
-550 -310 562 0
-550 -311 583 0
-550 -312 604 0
-550 -313 625 0
-550 -314 646 0
-550 -315 667 0
-551 -316 247 0
-551 -317 268 0
-551 -318 289 0
-551 -319 310 0
-551 -320 331 0
-551 -321 352 0
-551 -322 373 0
-551 -323 394 0
-551 -324 415 0
-551 -325 436 0
-551 -326 457 0
-551 -327 478 0
-551 -328 499 0
-551 -329 520 0
-551 -330 541 0
-551 -331 562 0
-551 -332 583 0
-551 -333 604 0
-551 -334 625 0
-551 -335 646 0
-551 -336 667 0
-552 -337 247 0
-552 -338 268 0
-552 -339 289 0
-552 -340 310 0
-552 -341 331 0
-552 -342 352 0
-552 -343 373 0
-552 -344 394 0
-552 -345 415 0
-552 -346 436 0
-552 -347 457 0
-552 -348 478 0
-552 -349 499 0
-552 -350 520 0
-552 -351 541 0
-552 -352 562 0
-552 -353 583 0
-552 -354 604 0
-552 -355 625 0
-552 -356 646 0
-552 -357 667 0
-553 -358 247 0
-553 -359 268 0
-553 -360 289 0
-553 -361 310 0
-553 -362 331 0
-553 -363 352 0
-553 -364 373 0
-553 -365 394 0
-553 -366 415 0
-553 -367 436 0
-553 -368 457 0
-553 -369 478 0
-553 -370 499 0
-553 -371 520 0
-553 -372 541 0
-553 -373 562 0
-553 -374 583 0
-553 -375 604 0
-553 -376 625 0
-553 -377 646 0
-553 -378 667 0
-554 -379 247 0
-554 -380 268 0
-554 -381 289 0
-554 -382 310 0
-554 -383 331 0
-554 -384 352 0
-554 -385 373 0
-554 -386 394 0
-554 -387 415 0
-554 -388 436 0
-554 -389 457 0
-554 -390 478 0
-554 -391 499 0
-554 -392 520 0
-554 -393 541 0
-554 -394 562 0
-554 -395 583 0
-554 -396 604 0
-554 -397 625 0
-554 -398 646 0
-554 -399 667 0
-555 -400 247 0
-555 -401 268 0
-555 -402 289 0
-555 -403 310 0
-555 -404 331 0
-555 -405 352 0
-555 -406 373 0
-555 -407 394 0
-555 -408 415 0
-555 -409 436 0
-555 -410 457 0
-555 -411 478 0
-555 -412 499 0
-555 -413 520 0
-555 -414 541 0
-555 -415 562 0
-555 -416 583 0
-555 -417 604 0
-555 -418 625 0
-555 -419 646 0
-555 -420 667 0
-556 -421 247 0
-556 -422 268 0
-556 -423 289 0
-556 -424 310 0
-556 -425 331 0
-556 -426 352 0
-556 -427 373 0
-556 -428 394 0
-556 -429 415 0
-556 -430 436 0
-556 -431 457 0
-556 -432 478 0
-556 -433 499 0
-556 -434 520 0
-556 -435 541 0
-556 -436 562 0
-556 -437 583 0
-556 -438 604 0
-556 -439 625 0
-556 -440 646 0
-556 -441 667 0
-557 -442 247 0
-557 -443 268 0
-557 -444 289 0
-557 -445 310 0
-557 -446 331 0
-557 -447 352 0
-557 -448 373 0
-557 -449 394 0
-557 -450 415 0
-557 -451 436 0
-557 -452 457 0
-557 -453 478 0
-557 -454 499 0
-557 -455 520 0
-557 -456 541 0
-557 -457 562 0
-557 -458 583 0
-557 -459 604 0
-557 -460 625 0
-557 -461 646 0
-557 -462 667 0
-558 -463 247 0
-558 -464 268 0
-558 -465 289 0
-558 -466 310 0
-558 -467 331 0
-558 -468 352 0
-558 -469 373 0
-558 -470 394 0
-558 -471 415 0
-558 -472 436 0
-558 -473 457 0
-558 -474 478 0
-558 -475 499 0
-558 -476 520 0
-558 -477 541 0
-558 -478 562 0
-558 -479 583 0
-558 -480 604 0
-558 -481 625 0
-558 -482 646 0
-558 -483 667 0
-559 -484 247 0
-559 -485 268 0
-559 -486 289 0
-559 -487 310 0
-559 -488 331 0
-559 -489 352 0
-559 -490 373 0
-559 -491 394 0
-559 -492 415 0
-559 -493 436 0
-559 -494 457 0
-559 -495 478 0
-559 -496 499 0
-559 -497 520 0
-559 -498 541 0
-559 -499 562 0
-559 -500 583 0
-559 -501 604 0
-559 -502 625 0
-559 -503 646 0
-559 -504 667 0
-560 -505 247 0
-560 -506 268 0
-560 -507 289 0
-560 -508 310 0
-560 -509 331 0
-560 -510 352 0
-560 -511 373 0
-560 -512 394 0
-560 -513 415 0
-560 -514 436 0
-560 -515 457 0
-560 -516 478 0
-560 -517 499 0
-560 -518 520 0
-560 -519 541 0
-560 -520 562 0
-560 -521 583 0
-560 -522 604 0
-560 -523 625 0
-560 -524 646 0
-560 -525 667 0
-561 -526 247 0
-561 -527 268 0
-561 -528 289 0
-561 -529 310 0
-561 -530 331 0
-561 -531 352 0
-561 -532 373 0
-561 -533 394 0
-561 -534 415 0
-561 -535 436 0
-561 -536 457 0
-561 -537 478 0
-561 -538 499 0
-561 -539 520 0
-561 -540 541 0
-561 -541 562 0
-561 -542 583 0
-561 -543 604 0
-561 -544 625 0
-561 -545 646 0
-561 -546 667 0
-562 -547 247 0
-562 -548 268 0
-562 -549 289 0
-562 -550 310 0
-562 -551 331 0
-562 -552 352 0
-562 -553 373 0
-562 -554 394 0
-562 -555 415 0
-562 -556 436 0
-562 -557 457 0
-562 -558 478 0
-562 -559 499 0
-562 -560 520 0
-562 -561 541 0
-562 -562 562 0
-562 -563 583 0
-562 -564 604 0
-562 -565 625 0
-562 -566 646 0
-562 -567 667 0
-563 -568 247 0
-563 -569 268 0
-563 -570 289 0
-563 -571 310 0
-563 -572 331 0
-563 -573 352 0
-563 -574 373 0
-563 -575 394 0
-563 -576 415 0
-563 -577 436 0
-563 -578 457 0
-563 -579 478 0
-563 -580 499 0
-563 -581 520 0
-563 -582 541 0
-563 -583 562 0
-563 -584 583 0
-563 -585 604 0
-563 -586 625 0
-563 -587 646 0
-563 -588 667 0
-564 -589 247 0
-564 -590 268 0
-564 -591 289 0
-564 -592 310 0
-564 -593 331 0
-564 -594 352 0
-564 -595 373 0
-564 -596 394 0
-564 -597 415 0
-564 -598 436 0
-564 -599 457 0
-564 -600 478 0
-564 -601 499 0
-564 -602 520 0
-564 -603 541 0
-564 -604 562 0
-564 -605 583 0
-564 -606 604 0
-564 -607 625 0
-564 -608 646 0
-564 -609 667 0
-565 -610 247 0
-565 -611 268 0
-565 -612 289 0
-565 -613 310 0
-565 -614 331 0
-565 -615 352 0
-565 -616 373 0
-565 -617 394 0
-565 -618 415 0
-565 -619 436 0
-565 -620 457 0
-565 -621 478 0
-565 -622 499 0
-565 -623 520 0
-565 -624 541 0
-565 -625 562 0
-565 -626 583 0
-565 -627 604 0
-565 -628 625 0
-565 -629 646 0
-565 -630 667 0
-566 -631 247 0
-566 -632 268 0
-566 -633 289 0
-566 -634 310 0
-566 -635 331 0
-566 -636 352 0
-566 -637 373 0
-566 -638 394 0
-566 -639 415 0
-566 -640 436 0
-566 -641 457 0
-566 -642 478 0
-566 -643 499 0
-566 -644 520 0
-566 -645 541 0
-566 -646 562 0
-566 -647 583 0
-566 -648 604 0
-566 -649 625 0
-566 -650 646 0
-566 -651 667 0
-567 -652 247 0
-567 -653 268 0
-567 -654 289 0
-567 -655 310 0
-567 -656 331 0
-567 -657 352 0
-567 -658 373 0
-567 -659 394 0
-567 -660 415 0
-567 -661 436 0
-567 -662 457 0
-567 -663 478 0
-567 -664 499 0
-567 -665 520 0
-567 -666 541 0
-567 -667 562 0
-567 -668 583 0
-567 -669 604 0
-567 -670 625 0
-567 -671 646 0
-567 -672 667 0
-568 -232 248 0
-568 -233 269 0
-568 -234 290 0
-568 -235 311 0
-568 -236 332 0
-568 -237 353 0
-568 -238 374 0
-568 -239 395 0
-568 -240 416 0
-568 -241 437 0
-568 -242 458 0
-568 -243 479 0
-568 -244 500 0
-568 -245 521 0
-568 -246 542 0
-568 -247 563 0
-568 -248 584 0
-568 -249 605 0
-568 -250 626 0
-568 -251 647 0
-568 -252 668 0
-569 -253 248 0
-569 -254 269 0
-569 -255 290 0
-569 -256 311 0
-569 -257 332 0
-569 -258 353 0
-569 -259 374 0
-569 -260 395 0
-569 -261 416 0
-569 -262 437 0
-569 -263 458 0
-569 -264 479 0
-569 -265 500 0
-569 -266 521 0
-569 -267 542 0
-569 -268 563 0
-569 -269 584 0
-569 -270 605 0
-569 -271 626 0
-569 -272 647 0
-569 -273 668 0
-570 -274 248 0
-570 -275 269 0
-570 -276 290 0
-570 -277 311 0
-570 -278 332 0
-570 -279 353 0
-570 -280 374 0
-570 -281 395 0
-570 -282 416 0
-570 -283 437 0
-570 -284 458 0
-570 -285 479 0
-570 -286 500 0
-570 -287 521 0
-570 -288 542 0
-570 -289 563 0
-570 -290 584 0
-570 -291 605 0
-570 -292 626 0
-570 -293 647 0
-570 -294 668 0
-571 -295 248 0
-571 -296 269 0
-571 -297 290 0
-571 -298 311 0
-571 -299 332 0
-571 -300 353 0
-571 -301 374 0
-571 -302 395 0
-571 -303 416 0
-571 -304 437 0
-571 -305 458 0
-571 -306 479 0
-571 -307 500 0
-571 -308 521 0
-571 -309 542 0
-571 -310 563 0
-571 -311 584 0
-571 -312 605 0
-571 -313 626 0
-571 -314 647 0
-571 -315 668 0
-572 -316 248 0
-572 -317 269 0
-572 -318 290 0
-572 -319 311 0
-572 -320 332 0
-572 -321 353 0
-572 -322 374 0
-572 -323 395 0
-572 -324 416 0
-572 -325 437 0
-572 -326 458 0
-572 -327 479 0
-572 -328 500 0
-572 -329 521 0
-572 -330 542 0
-572 -331 563 0
-572 -332 584 0
-572 -333 605 0
-572 -334 626 0
-572 -335 647 0
-572 -336 668 0
-573 -337 248 0
-573 -338 269 0
-573 -339 290 0
-573 -340 311 0
-573 -341 332 0
-573 -342 353 0
-573 -343 374 0
-573 -344 395 0
-573 -345 416 0
-573 -346 437 0
-573 -347 458 0
-573 -348 479 0
-573 -349 500 0
-573 -350 521 0
-573 -351 542 0
-573 -352 563 0
-573 -353 584 0
-573 -354 605 0
-573 -355 626 0
-573 -356 647 0
-573 -357 668 0
-574 -358 248 0
-574 -359 269 0
-574 -360 290 0
-574 -361 311 0
-574 -362 332 0
-574 -363 353 0
-574 -364 374 0
-574 -365 395 0
-574 -366 416 0
-574 -367 437 0
-574 -368 458 0
-574 -369 479 0
-574 -370 500 0
-574 -371 521 0
-574 -372 542 0
-574 -373 563 0
-574 -374 584 0
-574 -375 605 0
-574 -376 626 0
-574 -377 647 0
-574 -378 668 0
-575 -379 248 0
-575 -380 269 0
-575 -381 290 0
-575 -382 311 0
-575 -383 332 0
-575 -384 353 0
-575 -385 374 0
-575 -386 395 0
-575 -387 416 0
-575 -388 437 0
-575 -389 458 0
-575 -390 479 0
-575 -391 500 0
-575 -392 521 0
-575 -393 542 0
-575 -394 563 0
-575 -395 584 0
-575 -396 605 0
-575 -397 626 0
-575 -398 647 0
-575 -399 668 0
-576 -400 248 0
-576 -401 269 0
-576 -402 290 0
-576 -403 311 0
-576 -404 332 0
-576 -405 353 0
-576 -406 374 0
-576 -407 395 0
-576 -408 416 0
-576 -409 437 0
-576 -410 458 0
-576 -411 479 0
-576 -412 500 0
-576 -413 521 0
-576 -414 542 0
-576 -415 563 0
-576 -416 584 0
-576 -417 605 0
-576 -418 626 0
-576 -419 647 0
-576 -420 668 0
-577 -421 248 0
-577 -422 269 0
-577 -423 290 0
-577 -424 311 0
-577 -425 332 0
-577 -426 353 0
-577 -427 374 0
-577 -428 395 0
-577 -429 416 0
-577 -430 437 0
-577 -431 458 0
-577 -432 479 0
-577 -433 500 0
-577 -434 521 0
-577 -435 542 0
-577 -436 563 0
-577 -437 584 0
-577 -438 605 0
-577 -439 626 0
-577 -440 647 0
-577 -441 668 0
-578 -442 248 0
-578 -443 269 0
-578 -444 290 0
-578 -445 311 0
-578 -446 332 0
-578 -447 353 0
-578 -448 374 0
-578 -449 395 0
-578 -450 416 0
-578 -451 437 0
-578 -452 458 0
-578 -453 479 0
-578 -454 500 0
-578 -455 521 0
-578 -456 542 0
-578 -457 563 0
-578 -458 584 0
-578 -459 605 0
-578 -460 626 0
-578 -461 647 0
-578 -462 668 0
-579 -463 248 0
-579 -464 269 0
-579 -465 290 0
-579 -466 311 0
-579 -467 332 0
-579 -468 353 0
-579 -469 374 0
-579 -470 395 0
-579 -471 416 0
-579 -472 437 0
-579 -473 458 0
-579 -474 479 0
-579 -475 500 0
-579 -476 521 0
-579 -477 542 0
-579 -478 563 0
-579 -479 584 0
-579 -480 605 0
-579 -481 626 0
-579 -482 647 0
-579 -483 668 0
-580 -484 248 0
-580 -485 269 0
-580 -486 290 0
-580 -487 311 0
-580 -488 332 0
-580 -489 353 0
-580 -490 374 0
-580 -491 395 0
-580 -492 416 0
-580 -493 437 0
-580 -494 458 0
-580 -495 479 0
-580 -496 500 0
-580 -497 521 0
-580 -498 542 0
-580 -499 563 0
-580 -500 584 0
-580 -501 605 0
-580 -502 626 0
-580 -503 647 0
-580 -504 668 0
-581 -505 248 0
-581 -506 269 0
-581 -507 290 0
-581 -508 311 0
-581 -509 332 0
-581 -510 353 0
-581 -511 374 0
-581 -512 395 0
-581 -513 416 0
-581 -514 437 0
-581 -515 458 0
-581 -516 479 0
-581 -517 500 0
-581 -518 521 0
-581 -519 542 0
-581 -520 563 0
-581 -521 584 0
-581 -522 605 0
-581 -523 626 0
-581 -524 647 0
-581 -525 668 0
-582 -526 248 0
-582 -527 269 0
-582 -528 290 0
-582 -529 311 0
-582 -530 332 0
-582 -531 353 0
-582 -532 374 0
-582 -533 395 0
-582 -534 416 0
-582 -535 437 0
-582 -536 458 0
-582 -537 479 0
-582 -538 500 0
-582 -539 521 0
-582 -540 542 0
-582 -541 563 0
-582 -542 584 0
-582 -543 605 0
-582 -544 626 0
-582 -545 647 0
-582 -546 668 0
-583 -547 248 0
-583 -548 269 0
-583 -549 290 0
-583 -550 311 0
-583 -551 332 0
-583 -552 353 0
-583 -553 374 0
-583 -554 395 0
-583 -555 416 0
-583 -556 437 0
-583 -557 458 0
-583 -558 479 0
-583 -559 500 0
-583 -560 521 0
-583 -561 542 0
-583 -562 563 0
-583 -563 584 0
-583 -564 605 0
-583 -565 626 0
-583 -566 647 0
-583 -567 668 0
-584 -568 248 0
-584 -569 269 0
-584 -570 290 0
-584 -571 311 0
-584 -572 332 0
-584 -573 353 0
-584 -574 374 0
-584 -575 395 0
-584 -576 416 0
-584 -577 437 0
-584 -578 458 0
-584 -579 479 0
-584 -580 500 0
-584 -581 521 0
-584 -582 542 0
-584 -583 563 0
-584 -584 584 0
-584 -585 605 0
-584 -586 626 0
-584 -587 647 0
-584 -588 668 0
-585 -589 248 0
-585 -590 269 0
-585 -591 290 0
-585 -592 311 0
-585 -593 332 0
-585 -594 353 0
-585 -595 374 0
-585 -596 395 0
-585 -597 416 0
-585 -598 437 0
-585 -599 458 0
-585 -600 479 0
-585 -601 500 0
-585 -602 521 0
-585 -603 542 0
-585 -604 563 0
-585 -605 584 0
-585 -606 605 0
-585 -607 626 0
-585 -608 647 0
-585 -609 668 0
-586 -610 248 0
-586 -611 269 0
-586 -612 290 0
-586 -613 311 0
-586 -614 332 0
-586 -615 353 0
-586 -616 374 0
-586 -617 395 0
-586 -618 416 0
-586 -619 437 0
-586 -620 458 0
-586 -621 479 0
-586 -622 500 0
-586 -623 521 0
-586 -624 542 0
-586 -625 563 0
-586 -626 584 0
-586 -627 605 0
-586 -628 626 0
-586 -629 647 0
-586 -630 668 0
-587 -631 248 0
-587 -632 269 0
-587 -633 290 0
-587 -634 311 0
-587 -635 332 0
-587 -636 353 0
-587 -637 374 0
-587 -638 395 0
-587 -639 416 0
-587 -640 437 0
-587 -641 458 0
-587 -642 479 0
-587 -643 500 0
-587 -644 521 0
-587 -645 542 0
-587 -646 563 0
-587 -647 584 0
-587 -648 605 0
-587 -649 626 0
-587 -650 647 0
-587 -651 668 0
-588 -652 248 0
-588 -653 269 0
-588 -654 290 0
-588 -655 311 0
-588 -656 332 0
-588 -657 353 0
-588 -658 374 0
-588 -659 395 0
-588 -660 416 0
-588 -661 437 0
-588 -662 458 0
-588 -663 479 0
-588 -664 500 0
-588 -665 521 0
-588 -666 542 0
-588 -667 563 0
-588 -668 584 0
-588 -669 605 0
-588 -670 626 0
-588 -671 647 0
-588 -672 668 0
-589 -232 249 0
-589 -233 270 0
-589 -234 291 0
-589 -235 312 0
-589 -236 333 0
-589 -237 354 0
-589 -238 375 0
-589 -239 396 0
-589 -240 417 0
-589 -241 438 0
-589 -242 459 0
-589 -243 480 0
-589 -244 501 0
-589 -245 522 0
-589 -246 543 0
-589 -247 564 0
-589 -248 585 0
-589 -249 606 0
-589 -250 627 0
-589 -251 648 0
-589 -252 669 0
-590 -253 249 0
-590 -254 270 0
-590 -255 291 0
-590 -256 312 0
-590 -257 333 0
-590 -258 354 0
-590 -259 375 0
-590 -260 396 0
-590 -261 417 0
-590 -262 438 0
-590 -263 459 0
-590 -264 480 0
-590 -265 501 0
-590 -266 522 0
-590 -267 543 0
-590 -268 564 0
-590 -269 585 0
-590 -270 606 0
-590 -271 627 0
-590 -272 648 0
-590 -273 669 0
-591 -274 249 0
-591 -275 270 0
-591 -276 291 0
-591 -277 312 0
-591 -278 333 0
-591 -279 354 0
-591 -280 375 0
-591 -281 396 0
-591 -282 417 0
-591 -283 438 0
-591 -284 459 0
-591 -285 480 0
-591 -286 501 0
-591 -287 522 0
-591 -288 543 0
-591 -289 564 0
-591 -290 585 0
-591 -291 606 0
-591 -292 627 0
-591 -293 648 0
-591 -294 669 0
-592 -295 249 0
-592 -296 270 0
-592 -297 291 0
-592 -298 312 0
-592 -299 333 0
-592 -300 354 0
-592 -301 375 0
-592 -302 396 0
-592 -303 417 0
-592 -304 438 0
-592 -305 459 0
-592 -306 480 0
-592 -307 501 0
-592 -308 522 0
-592 -309 543 0
-592 -310 564 0
-592 -311 585 0
-592 -312 606 0
-592 -313 627 0
-592 -314 648 0
-592 -315 669 0
-593 -316 249 0
-593 -317 270 0
-593 -318 291 0
-593 -319 312 0
-593 -320 333 0
-593 -321 354 0
-593 -322 375 0
-593 -323 396 0
-593 -324 417 0
-593 -325 438 0
-593 -326 459 0
-593 -327 480 0
-593 -328 501 0
-593 -329 522 0
-593 -330 543 0
-593 -331 564 0
-593 -332 585 0
-593 -333 606 0
-593 -334 627 0
-593 -335 648 0
-593 -336 669 0
-594 -337 249 0
-594 -338 270 0
-594 -339 291 0
-594 -340 312 0
-594 -341 333 0
-594 -342 354 0
-594 -343 375 0
-594 -344 396 0
-594 -345 417 0
-594 -346 438 0
-594 -347 459 0
-594 -348 480 0
-594 -349 501 0
-594 -350 522 0
-594 -351 543 0
-594 -352 564 0
-594 -353 585 0
-594 -354 606 0
-594 -355 627 0
-594 -356 648 0
-594 -357 669 0
-595 -358 249 0
-595 -359 270 0
-595 -360 291 0
-595 -361 312 0
-595 -362 333 0
-595 -363 354 0
-595 -364 375 0
-595 -365 396 0
-595 -366 417 0
-595 -367 438 0
-595 -368 459 0
-595 -369 480 0
-595 -370 501 0
-595 -371 522 0
-595 -372 543 0
-595 -373 564 0
-595 -374 585 0
-595 -375 606 0
-595 -376 627 0
-595 -377 648 0
-595 -378 669 0
-596 -379 249 0
-596 -380 270 0
-596 -381 291 0
-596 -382 312 0
-596 -383 333 0
-596 -384 354 0
-596 -385 375 0
-596 -386 396 0
-596 -387 417 0
-596 -388 438 0
-596 -389 459 0
-596 -390 480 0
-596 -391 501 0
-596 -392 522 0
-596 -393 543 0
-596 -394 564 0
-596 -395 585 0
-596 -396 606 0
-596 -397 627 0
-596 -398 648 0
-596 -399 669 0
-597 -400 249 0
-597 -401 270 0
-597 -402 291 0
-597 -403 312 0
-597 -404 333 0
-597 -405 354 0
-597 -406 375 0
-597 -407 396 0
-597 -408 417 0
-597 -409 438 0
-597 -410 459 0
-597 -411 480 0
-597 -412 501 0
-597 -413 522 0
-597 -414 543 0
-597 -415 564 0
-597 -416 585 0
-597 -417 606 0
-597 -418 627 0
-597 -419 648 0
-597 -420 669 0
-598 -421 249 0
-598 -422 270 0
-598 -423 291 0
-598 -424 312 0
-598 -425 333 0
-598 -426 354 0
-598 -427 375 0
-598 -428 396 0
-598 -429 417 0
-598 -430 438 0
-598 -431 459 0
-598 -432 480 0
-598 -433 501 0
-598 -434 522 0
-598 -435 543 0
-598 -436 564 0
-598 -437 585 0
-598 -438 606 0
-598 -439 627 0
-598 -440 648 0
-598 -441 669 0
-599 -442 249 0
-599 -443 270 0
-599 -444 291 0
-599 -445 312 0
-599 -446 333 0
-599 -447 354 0
-599 -448 375 0
-599 -449 396 0
-599 -450 417 0
-599 -451 438 0
-599 -452 459 0
-599 -453 480 0
-599 -454 501 0
-599 -455 522 0
-599 -456 543 0
-599 -457 564 0
-599 -458 585 0
-599 -459 606 0
-599 -460 627 0
-599 -461 648 0
-599 -462 669 0
-600 -463 249 0
-600 -464 270 0
-600 -465 291 0
-600 -466 312 0
-600 -467 333 0
-600 -468 354 0
-600 -469 375 0
-600 -470 396 0
-600 -471 417 0
-600 -472 438 0
-600 -473 459 0
-600 -474 480 0
-600 -475 501 0
-600 -476 522 0
-600 -477 543 0
-600 -478 564 0
-600 -479 585 0
-600 -480 606 0
-600 -481 627 0
-600 -482 648 0
-600 -483 669 0
-601 -484 249 0
-601 -485 270 0
-601 -486 291 0
-601 -487 312 0
-601 -488 333 0
-601 -489 354 0
-601 -490 375 0
-601 -491 396 0
-601 -492 417 0
-601 -493 438 0
-601 -494 459 0
-601 -495 480 0
-601 -496 501 0
-601 -497 522 0
-601 -498 543 0
-601 -499 564 0
-601 -500 585 0
-601 -501 606 0
-601 -502 627 0
-601 -503 648 0
-601 -504 669 0
-602 -505 249 0
-602 -506 270 0
-602 -507 291 0
-602 -508 312 0
-602 -509 333 0
-602 -510 354 0
-602 -511 375 0
-602 -512 396 0
-602 -513 417 0
-602 -514 438 0
-602 -515 459 0
-602 -516 480 0
-602 -517 501 0
-602 -518 522 0
-602 -519 543 0
-602 -520 564 0
-602 -521 585 0
-602 -522 606 0
-602 -523 627 0
-602 -524 648 0
-602 -525 669 0
-603 -526 249 0
-603 -527 270 0
-603 -528 291 0
-603 -529 312 0
-603 -530 333 0
-603 -531 354 0
-603 -532 375 0
-603 -533 396 0
-603 -534 417 0
-603 -535 438 0
-603 -536 459 0
-603 -537 480 0
-603 -538 501 0
-603 -539 522 0
-603 -540 543 0
-603 -541 564 0
-603 -542 585 0
-603 -543 606 0
-603 -544 627 0
-603 -545 648 0
-603 -546 669 0
-604 -547 249 0
-604 -548 270 0
-604 -549 291 0
-604 -550 312 0
-604 -551 333 0
-604 -552 354 0
-604 -553 375 0
-604 -554 396 0
-604 -555 417 0
-604 -556 438 0
-604 -557 459 0
-604 -558 480 0
-604 -559 501 0
-604 -560 522 0
-604 -561 543 0
-604 -562 564 0
-604 -563 585 0
-604 -564 606 0
-604 -565 627 0
-604 -566 648 0
-604 -567 669 0
-605 -568 249 0
-605 -569 270 0
-605 -570 291 0
-605 -571 312 0
-605 -572 333 0
-605 -573 354 0
-605 -574 375 0
-605 -575 396 0
-605 -576 417 0
-605 -577 438 0
-605 -578 459 0
-605 -579 480 0
-605 -580 501 0
-605 -581 522 0
-605 -582 543 0
-605 -583 564 0
-605 -584 585 0
-605 -585 606 0
-605 -586 627 0
-605 -587 648 0
-605 -588 669 0
-606 -589 249 0
-606 -590 270 0
-606 -591 291 0
-606 -592 312 0
-606 -593 333 0
-606 -594 354 0
-606 -595 375 0
-606 -596 396 0
-606 -597 417 0
-606 -598 438 0
-606 -599 459 0
-606 -600 480 0
-606 -601 501 0
-606 -602 522 0
-606 -603 543 0
-606 -604 564 0
-606 -605 585 0
-606 -606 606 0
-606 -607 627 0
-606 -608 648 0
-606 -609 669 0
-607 -610 249 0
-607 -611 270 0
-607 -612 291 0
-607 -613 312 0
-607 -614 333 0
-607 -615 354 0
-607 -616 375 0
-607 -617 396 0
-607 -618 417 0
-607 -619 438 0
-607 -620 459 0
-607 -621 480 0
-607 -622 501 0
-607 -623 522 0
-607 -624 543 0
-607 -625 564 0
-607 -626 585 0
-607 -627 606 0
-607 -628 627 0
-607 -629 648 0
-607 -630 669 0
-608 -631 249 0
-608 -632 270 0
-608 -633 291 0
-608 -634 312 0
-608 -635 333 0
-608 -636 354 0
-608 -637 375 0
-608 -638 396 0
-608 -639 417 0
-608 -640 438 0
-608 -641 459 0
-608 -642 480 0
-608 -643 501 0
-608 -644 522 0
-608 -645 543 0
-608 -646 564 0
-608 -647 585 0
-608 -648 606 0
-608 -649 627 0
-608 -650 648 0
-608 -651 669 0
-609 -652 249 0
-609 -653 270 0
-609 -654 291 0
-609 -655 312 0
-609 -656 333 0
-609 -657 354 0
-609 -658 375 0
-609 -659 396 0
-609 -660 417 0
-609 -661 438 0
-609 -662 459 0
-609 -663 480 0
-609 -664 501 0
-609 -665 522 0
-609 -666 543 0
-609 -667 564 0
-609 -668 585 0
-609 -669 606 0
-609 -670 627 0
-609 -671 648 0
-609 -672 669 0
-610 -232 250 0
-610 -233 271 0
-610 -234 292 0
-610 -235 313 0
-610 -236 334 0
-610 -237 355 0
-610 -238 376 0
-610 -239 397 0
-610 -240 418 0
-610 -241 439 0
-610 -242 460 0
-610 -243 481 0
-610 -244 502 0
-610 -245 523 0
-610 -246 544 0
-610 -247 565 0
-610 -248 586 0
-610 -249 607 0
-610 -250 628 0
-610 -251 649 0
-610 -252 670 0
-611 -253 250 0
-611 -254 271 0
-611 -255 292 0
-611 -256 313 0
-611 -257 334 0
-611 -258 355 0
-611 -259 376 0
-611 -260 397 0
-611 -261 418 0
-611 -262 439 0
-611 -263 460 0
-611 -264 481 0
-611 -265 502 0
-611 -266 523 0
-611 -267 544 0
-611 -268 565 0
-611 -269 586 0
-611 -270 607 0
-611 -271 628 0
-611 -272 649 0
-611 -273 670 0
-612 -274 250 0
-612 -275 271 0
-612 -276 292 0
-612 -277 313 0
-612 -278 334 0
-612 -279 355 0
-612 -280 376 0
-612 -281 397 0
-612 -282 418 0
-612 -283 439 0
-612 -284 460 0
-612 -285 481 0
-612 -286 502 0
-612 -287 523 0
-612 -288 544 0
-612 -289 565 0
-612 -290 586 0
-612 -291 607 0
-612 -292 628 0
-612 -293 649 0
-612 -294 670 0
-613 -295 250 0
-613 -296 271 0
-613 -297 292 0
-613 -298 313 0
-613 -299 334 0
-613 -300 355 0
-613 -301 376 0
-613 -302 397 0
-613 -303 418 0
-613 -304 439 0
-613 -305 460 0
-613 -306 481 0
-613 -307 502 0
-613 -308 523 0
-613 -309 544 0
-613 -310 565 0
-613 -311 586 0
-613 -312 607 0
-613 -313 628 0
-613 -314 649 0
-613 -315 670 0
-614 -316 250 0
-614 -317 271 0
-614 -318 292 0
-614 -319 313 0
-614 -320 334 0
-614 -321 355 0
-614 -322 376 0
-614 -323 397 0
-614 -324 418 0
-614 -325 439 0
-614 -326 460 0
-614 -327 481 0
-614 -328 502 0
-614 -329 523 0
-614 -330 544 0
-614 -331 565 0
-614 -332 586 0
-614 -333 607 0
-614 -334 628 0
-614 -335 649 0
-614 -336 670 0
-615 -337 250 0
-615 -338 271 0
-615 -339 292 0
-615 -340 313 0
-615 -341 334 0
-615 -342 355 0
-615 -343 376 0
-615 -344 397 0
-615 -345 418 0
-615 -346 439 0
-615 -347 460 0
-615 -348 481 0
-615 -349 502 0
-615 -350 523 0
-615 -351 544 0
-615 -352 565 0
-615 -353 586 0
-615 -354 607 0
-615 -355 628 0
-615 -356 649 0
-615 -357 670 0
-616 -358 250 0
-616 -359 271 0
-616 -360 292 0
-616 -361 313 0
-616 -362 334 0
-616 -363 355 0
-616 -364 376 0
-616 -365 397 0
-616 -366 418 0
-616 -367 439 0
-616 -368 460 0
-616 -369 481 0
-616 -370 502 0
-616 -371 523 0
-616 -372 544 0
-616 -373 565 0
-616 -374 586 0
-616 -375 607 0
-616 -376 628 0
-616 -377 649 0
-616 -378 670 0
-617 -379 250 0
-617 -380 271 0
-617 -381 292 0
-617 -382 313 0
-617 -383 334 0
-617 -384 355 0
-617 -385 376 0
-617 -386 397 0
-617 -387 418 0
-617 -388 439 0
-617 -389 460 0
-617 -390 481 0
-617 -391 502 0
-617 -392 523 0
-617 -393 544 0
-617 -394 565 0
-617 -395 586 0
-617 -396 607 0
-617 -397 628 0
-617 -398 649 0
-617 -399 670 0
-618 -400 250 0
-618 -401 271 0
-618 -402 292 0
-618 -403 313 0
-618 -404 334 0
-618 -405 355 0
-618 -406 376 0
-618 -407 397 0
-618 -408 418 0
-618 -409 439 0
-618 -410 460 0
-618 -411 481 0
-618 -412 502 0
-618 -413 523 0
-618 -414 544 0
-618 -415 565 0
-618 -416 586 0
-618 -417 607 0
-618 -418 628 0
-618 -419 649 0
-618 -420 670 0
-619 -421 250 0
-619 -422 271 0
-619 -423 292 0
-619 -424 313 0
-619 -425 334 0
-619 -426 355 0
-619 -427 376 0
-619 -428 397 0
-619 -429 418 0
-619 -430 439 0
-619 -431 460 0
-619 -432 481 0
-619 -433 502 0
-619 -434 523 0
-619 -435 544 0
-619 -436 565 0
-619 -437 586 0
-619 -438 607 0
-619 -439 628 0
-619 -440 649 0
-619 -441 670 0
-620 -442 250 0
-620 -443 271 0
-620 -444 292 0
-620 -445 313 0
-620 -446 334 0
-620 -447 355 0
-620 -448 376 0
-620 -449 397 0
-620 -450 418 0
-620 -451 439 0
-620 -452 460 0
-620 -453 481 0
-620 -454 502 0
-620 -455 523 0
-620 -456 544 0
-620 -457 565 0
-620 -458 586 0
-620 -459 607 0
-620 -460 628 0
-620 -461 649 0
-620 -462 670 0
-621 -463 250 0
-621 -464 271 0
-621 -465 292 0
-621 -466 313 0
-621 -467 334 0
-621 -468 355 0
-621 -469 376 0
-621 -470 397 0
-621 -471 418 0
-621 -472 439 0
-621 -473 460 0
-621 -474 481 0
-621 -475 502 0
-621 -476 523 0
-621 -477 544 0
-621 -478 565 0
-621 -479 586 0
-621 -480 607 0
-621 -481 628 0
-621 -482 649 0
-621 -483 670 0
-622 -484 250 0
-622 -485 271 0
-622 -486 292 0
-622 -487 313 0
-622 -488 334 0
-622 -489 355 0
-622 -490 376 0
-622 -491 397 0
-622 -492 418 0
-622 -493 439 0
-622 -494 460 0
-622 -495 481 0
-622 -496 502 0
-622 -497 523 0
-622 -498 544 0
-622 -499 565 0
-622 -500 586 0
-622 -501 607 0
-622 -502 628 0
-622 -503 649 0
-622 -504 670 0
-623 -505 250 0
-623 -506 271 0
-623 -507 292 0
-623 -508 313 0
-623 -509 334 0
-623 -510 355 0
-623 -511 376 0
-623 -512 397 0
-623 -513 418 0
-623 -514 439 0
-623 -515 460 0
-623 -516 481 0
-623 -517 502 0
-623 -518 523 0
-623 -519 544 0
-623 -520 565 0
-623 -521 586 0
-623 -522 607 0
-623 -523 628 0
-623 -524 649 0
-623 -525 670 0
-624 -526 250 0
-624 -527 271 0
-624 -528 292 0
-624 -529 313 0
-624 -530 334 0
-624 -531 355 0
-624 -532 376 0
-624 -533 397 0
-624 -534 418 0
-624 -535 439 0
-624 -536 460 0
-624 -537 481 0
-624 -538 502 0
-624 -539 523 0
-624 -540 544 0
-624 -541 565 0
-624 -542 586 0
-624 -543 607 0
-624 -544 628 0
-624 -545 649 0
-624 -546 670 0
-625 -547 250 0
-625 -548 271 0
-625 -549 292 0
-625 -550 313 0
-625 -551 334 0
-625 -552 355 0
-625 -553 376 0
-625 -554 397 0
-625 -555 418 0
-625 -556 439 0
-625 -557 460 0
-625 -558 481 0
-625 -559 502 0
-625 -560 523 0
-625 -561 544 0
-625 -562 565 0
-625 -563 586 0
-625 -564 607 0
-625 -565 628 0
-625 -566 649 0
-625 -567 670 0
-626 -568 250 0
-626 -569 271 0
-626 -570 292 0
-626 -571 313 0
-626 -572 334 0
-626 -573 355 0
-626 -574 376 0
-626 -575 397 0
-626 -576 418 0
-626 -577 439 0
-626 -578 460 0
-626 -579 481 0
-626 -580 502 0
-626 -581 523 0
-626 -582 544 0
-626 -583 565 0
-626 -584 586 0
-626 -585 607 0
-626 -586 628 0
-626 -587 649 0
-626 -588 670 0
-627 -589 250 0
-627 -590 271 0
-627 -591 292 0
-627 -592 313 0
-627 -593 334 0
-627 -594 355 0
-627 -595 376 0
-627 -596 397 0
-627 -597 418 0
-627 -598 439 0
-627 -599 460 0
-627 -600 481 0
-627 -601 502 0
-627 -602 523 0
-627 -603 544 0
-627 -604 565 0
-627 -605 586 0
-627 -606 607 0
-627 -607 628 0
-627 -608 649 0
-627 -609 670 0
-628 -610 250 0
-628 -611 271 0
-628 -612 292 0
-628 -613 313 0
-628 -614 334 0
-628 -615 355 0
-628 -616 376 0
-628 -617 397 0
-628 -618 418 0
-628 -619 439 0
-628 -620 460 0
-628 -621 481 0
-628 -622 502 0
-628 -623 523 0
-628 -624 544 0
-628 -625 565 0
-628 -626 586 0
-628 -627 607 0
-628 -628 628 0
-628 -629 649 0
-628 -630 670 0
-629 -631 250 0
-629 -632 271 0
-629 -633 292 0
-629 -634 313 0
-629 -635 334 0
-629 -636 355 0
-629 -637 376 0
-629 -638 397 0
-629 -639 418 0
-629 -640 439 0
-629 -641 460 0
-629 -642 481 0
-629 -643 502 0
-629 -644 523 0
-629 -645 544 0
-629 -646 565 0
-629 -647 586 0
-629 -648 607 0
-629 -649 628 0
-629 -650 649 0
-629 -651 670 0
-630 -652 250 0
-630 -653 271 0
-630 -654 292 0
-630 -655 313 0
-630 -656 334 0
-630 -657 355 0
-630 -658 376 0
-630 -659 397 0
-630 -660 418 0
-630 -661 439 0
-630 -662 460 0
-630 -663 481 0
-630 -664 502 0
-630 -665 523 0
-630 -666 544 0
-630 -667 565 0
-630 -668 586 0
-630 -669 607 0
-630 -670 628 0
-630 -671 649 0
-630 -672 670 0
-631 -232 251 0
-631 -233 272 0
-631 -234 293 0
-631 -235 314 0
-631 -236 335 0
-631 -237 356 0
-631 -238 377 0
-631 -239 398 0
-631 -240 419 0
-631 -241 440 0
-631 -242 461 0
-631 -243 482 0
-631 -244 503 0
-631 -245 524 0
-631 -246 545 0
-631 -247 566 0
-631 -248 587 0
-631 -249 608 0
-631 -250 629 0
-631 -251 650 0
-631 -252 671 0
-632 -253 251 0
-632 -254 272 0
-632 -255 293 0
-632 -256 314 0
-632 -257 335 0
-632 -258 356 0
-632 -259 377 0
-632 -260 398 0
-632 -261 419 0
-632 -262 440 0
-632 -263 461 0
-632 -264 482 0
-632 -265 503 0
-632 -266 524 0
-632 -267 545 0
-632 -268 566 0
-632 -269 587 0
-632 -270 608 0
-632 -271 629 0
-632 -272 650 0
-632 -273 671 0
-633 -274 251 0
-633 -275 272 0
-633 -276 293 0
-633 -277 314 0
-633 -278 335 0
-633 -279 356 0
-633 -280 377 0
-633 -281 398 0
-633 -282 419 0
-633 -283 440 0
-633 -284 461 0
-633 -285 482 0
-633 -286 503 0
-633 -287 524 0
-633 -288 545 0
-633 -289 566 0
-633 -290 587 0
-633 -291 608 0
-633 -292 629 0
-633 -293 650 0
-633 -294 671 0
-634 -295 251 0
-634 -296 272 0
-634 -297 293 0
-634 -298 314 0
-634 -299 335 0
-634 -300 356 0
-634 -301 377 0
-634 -302 398 0
-634 -303 419 0
-634 -304 440 0
-634 -305 461 0
-634 -306 482 0
-634 -307 503 0
-634 -308 524 0
-634 -309 545 0
-634 -310 566 0
-634 -311 587 0
-634 -312 608 0
-634 -313 629 0
-634 -314 650 0
-634 -315 671 0
-635 -316 251 0
-635 -317 272 0
-635 -318 293 0
-635 -319 314 0
-635 -320 335 0
-635 -321 356 0
-635 -322 377 0
-635 -323 398 0
-635 -324 419 0
-635 -325 440 0
-635 -326 461 0
-635 -327 482 0
-635 -328 503 0
-635 -329 524 0
-635 -330 545 0
-635 -331 566 0
-635 -332 587 0
-635 -333 608 0
-635 -334 629 0
-635 -335 650 0
-635 -336 671 0
-636 -337 251 0
-636 -338 272 0
-636 -339 293 0
-636 -340 314 0
-636 -341 335 0
-636 -342 356 0
-636 -343 377 0
-636 -344 398 0
-636 -345 419 0
-636 -346 440 0
-636 -347 461 0
-636 -348 482 0
-636 -349 503 0
-636 -350 524 0
-636 -351 545 0
-636 -352 566 0
-636 -353 587 0
-636 -354 608 0
-636 -355 629 0
-636 -356 650 0
-636 -357 671 0
-637 -358 251 0
-637 -359 272 0
-637 -360 293 0
-637 -361 314 0
-637 -362 335 0
-637 -363 356 0
-637 -364 377 0
-637 -365 398 0
-637 -366 419 0
-637 -367 440 0
-637 -368 461 0
-637 -369 482 0
-637 -370 503 0
-637 -371 524 0
-637 -372 545 0
-637 -373 566 0
-637 -374 587 0
-637 -375 608 0
-637 -376 629 0
-637 -377 650 0
-637 -378 671 0
-638 -379 251 0
-638 -380 272 0
-638 -381 293 0
-638 -382 314 0
-638 -383 335 0
-638 -384 356 0
-638 -385 377 0
-638 -386 398 0
-638 -387 419 0
-638 -388 440 0
-638 -389 461 0
-638 -390 482 0
-638 -391 503 0
-638 -392 524 0
-638 -393 545 0
-638 -394 566 0
-638 -395 587 0
-638 -396 608 0
-638 -397 629 0
-638 -398 650 0
-638 -399 671 0
-639 -400 251 0
-639 -401 272 0
-639 -402 293 0
-639 -403 314 0
-639 -404 335 0
-639 -405 356 0
-639 -406 377 0
-639 -407 398 0
-639 -408 419 0
-639 -409 440 0
-639 -410 461 0
-639 -411 482 0
-639 -412 503 0
-639 -413 524 0
-639 -414 545 0
-639 -415 566 0
-639 -416 587 0
-639 -417 608 0
-639 -418 629 0
-639 -419 650 0
-639 -420 671 0
-640 -421 251 0
-640 -422 272 0
-640 -423 293 0
-640 -424 314 0
-640 -425 335 0
-640 -426 356 0
-640 -427 377 0
-640 -428 398 0
-640 -429 419 0
-640 -430 440 0
-640 -431 461 0
-640 -432 482 0
-640 -433 503 0
-640 -434 524 0
-640 -435 545 0
-640 -436 566 0
-640 -437 587 0
-640 -438 608 0
-640 -439 629 0
-640 -440 650 0
-640 -441 671 0
-641 -442 251 0
-641 -443 272 0
-641 -444 293 0
-641 -445 314 0
-641 -446 335 0
-641 -447 356 0
-641 -448 377 0
-641 -449 398 0
-641 -450 419 0
-641 -451 440 0
-641 -452 461 0
-641 -453 482 0
-641 -454 503 0
-641 -455 524 0
-641 -456 545 0
-641 -457 566 0
-641 -458 587 0
-641 -459 608 0
-641 -460 629 0
-641 -461 650 0
-641 -462 671 0
-642 -463 251 0
-642 -464 272 0
-642 -465 293 0
-642 -466 314 0
-642 -467 335 0
-642 -468 356 0
-642 -469 377 0
-642 -470 398 0
-642 -471 419 0
-642 -472 440 0
-642 -473 461 0
-642 -474 482 0
-642 -475 503 0
-642 -476 524 0
-642 -477 545 0
-642 -478 566 0
-642 -479 587 0
-642 -480 608 0
-642 -481 629 0
-642 -482 650 0
-642 -483 671 0
-643 -484 251 0
-643 -485 272 0
-643 -486 293 0
-643 -487 314 0
-643 -488 335 0
-643 -489 356 0
-643 -490 377 0
-643 -491 398 0
-643 -492 419 0
-643 -493 440 0
-643 -494 461 0
-643 -495 482 0
-643 -496 503 0
-643 -497 524 0
-643 -498 545 0
-643 -499 566 0
-643 -500 587 0
-643 -501 608 0
-643 -502 629 0
-643 -503 650 0
-643 -504 671 0
-644 -505 251 0
-644 -506 272 0
-644 -507 293 0
-644 -508 314 0
-644 -509 335 0
-644 -510 356 0
-644 -511 377 0
-644 -512 398 0
-644 -513 419 0
-644 -514 440 0
-644 -515 461 0
-644 -516 482 0
-644 -517 503 0
-644 -518 524 0
-644 -519 545 0
-644 -520 566 0
-644 -521 587 0
-644 -522 608 0
-644 -523 629 0
-644 -524 650 0
-644 -525 671 0
-645 -526 251 0
-645 -527 272 0
-645 -528 293 0
-645 -529 314 0
-645 -530 335 0
-645 -531 356 0
-645 -532 377 0
-645 -533 398 0
-645 -534 419 0
-645 -535 440 0
-645 -536 461 0
-645 -537 482 0
-645 -538 503 0
-645 -539 524 0
-645 -540 545 0
-645 -541 566 0
-645 -542 587 0
-645 -543 608 0
-645 -544 629 0
-645 -545 650 0
-645 -546 671 0
-646 -547 251 0
-646 -548 272 0
-646 -549 293 0
-646 -550 314 0
-646 -551 335 0
-646 -552 356 0
-646 -553 377 0
-646 -554 398 0
-646 -555 419 0
-646 -556 440 0
-646 -557 461 0
-646 -558 482 0
-646 -559 503 0
-646 -560 524 0
-646 -561 545 0
-646 -562 566 0
-646 -563 587 0
-646 -564 608 0
-646 -565 629 0
-646 -566 650 0
-646 -567 671 0
-647 -568 251 0
-647 -569 272 0
-647 -570 293 0
-647 -571 314 0
-647 -572 335 0
-647 -573 356 0
-647 -574 377 0
-647 -575 398 0
-647 -576 419 0
-647 -577 440 0
-647 -578 461 0
-647 -579 482 0
-647 -580 503 0
-647 -581 524 0
-647 -582 545 0
-647 -583 566 0
-647 -584 587 0
-647 -585 608 0
-647 -586 629 0
-647 -587 650 0
-647 -588 671 0
-648 -589 251 0
-648 -590 272 0
-648 -591 293 0
-648 -592 314 0
-648 -593 335 0
-648 -594 356 0
-648 -595 377 0
-648 -596 398 0
-648 -597 419 0
-648 -598 440 0
-648 -599 461 0
-648 -600 482 0
-648 -601 503 0
-648 -602 524 0
-648 -603 545 0
-648 -604 566 0
-648 -605 587 0
-648 -606 608 0
-648 -607 629 0
-648 -608 650 0
-648 -609 671 0
-649 -610 251 0
-649 -611 272 0
-649 -612 293 0
-649 -613 314 0
-649 -614 335 0
-649 -615 356 0
-649 -616 377 0
-649 -617 398 0
-649 -618 419 0
-649 -619 440 0
-649 -620 461 0
-649 -621 482 0
-649 -622 503 0
-649 -623 524 0
-649 -624 545 0
-649 -625 566 0
-649 -626 587 0
-649 -627 608 0
-649 -628 629 0
-649 -629 650 0
-649 -630 671 0
-650 -631 251 0
-650 -632 272 0
-650 -633 293 0
-650 -634 314 0
-650 -635 335 0
-650 -636 356 0
-650 -637 377 0
-650 -638 398 0
-650 -639 419 0
-650 -640 440 0
-650 -641 461 0
-650 -642 482 0
-650 -643 503 0
-650 -644 524 0
-650 -645 545 0
-650 -646 566 0
-650 -647 587 0
-650 -648 608 0
-650 -649 629 0
-650 -650 650 0
-650 -651 671 0
-651 -652 251 0
-651 -653 272 0
-651 -654 293 0
-651 -655 314 0
-651 -656 335 0
-651 -657 356 0
-651 -658 377 0
-651 -659 398 0
-651 -660 419 0
-651 -661 440 0
-651 -662 461 0
-651 -663 482 0
-651 -664 503 0
-651 -665 524 0
-651 -666 545 0
-651 -667 566 0
-651 -668 587 0
-651 -669 608 0
-651 -670 629 0
-651 -671 650 0
-651 -672 671 0
-652 -232 252 0
-652 -233 273 0
-652 -234 294 0
-652 -235 315 0
-652 -236 336 0
-652 -237 357 0
-652 -238 378 0
-652 -239 399 0
-652 -240 420 0
-652 -241 441 0
-652 -242 462 0
-652 -243 483 0
-652 -244 504 0
-652 -245 525 0
-652 -246 546 0
-652 -247 567 0
-652 -248 588 0
-652 -249 609 0
-652 -250 630 0
-652 -251 651 0
-652 -252 672 0
-653 -253 252 0
-653 -254 273 0
-653 -255 294 0
-653 -256 315 0
-653 -257 336 0
-653 -258 357 0
-653 -259 378 0
-653 -260 399 0
-653 -261 420 0
-653 -262 441 0
-653 -263 462 0
-653 -264 483 0
-653 -265 504 0
-653 -266 525 0
-653 -267 546 0
-653 -268 567 0
-653 -269 588 0
-653 -270 609 0
-653 -271 630 0
-653 -272 651 0
-653 -273 672 0
-654 -274 252 0
-654 -275 273 0
-654 -276 294 0
-654 -277 315 0
-654 -278 336 0
-654 -279 357 0
-654 -280 378 0
-654 -281 399 0
-654 -282 420 0
-654 -283 441 0
-654 -284 462 0
-654 -285 483 0
-654 -286 504 0
-654 -287 525 0
-654 -288 546 0
-654 -289 567 0
-654 -290 588 0
-654 -291 609 0
-654 -292 630 0
-654 -293 651 0
-654 -294 672 0
-655 -295 252 0
-655 -296 273 0
-655 -297 294 0
-655 -298 315 0
-655 -299 336 0
-655 -300 357 0
-655 -301 378 0
-655 -302 399 0
-655 -303 420 0
-655 -304 441 0
-655 -305 462 0
-655 -306 483 0
-655 -307 504 0
-655 -308 525 0
-655 -309 546 0
-655 -310 567 0
-655 -311 588 0
-655 -312 609 0
-655 -313 630 0
-655 -314 651 0
-655 -315 672 0
-656 -316 252 0
-656 -317 273 0
-656 -318 294 0
-656 -319 315 0
-656 -320 336 0
-656 -321 357 0
-656 -322 378 0
-656 -323 399 0
-656 -324 420 0
-656 -325 441 0
-656 -326 462 0
-656 -327 483 0
-656 -328 504 0
-656 -329 525 0
-656 -330 546 0
-656 -331 567 0
-656 -332 588 0
-656 -333 609 0
-656 -334 630 0
-656 -335 651 0
-656 -336 672 0
-657 -337 252 0
-657 -338 273 0
-657 -339 294 0
-657 -340 315 0
-657 -341 336 0
-657 -342 357 0
-657 -343 378 0
-657 -344 399 0
-657 -345 420 0
-657 -346 441 0
-657 -347 462 0
-657 -348 483 0
-657 -349 504 0
-657 -350 525 0
-657 -351 546 0
-657 -352 567 0
-657 -353 588 0
-657 -354 609 0
-657 -355 630 0
-657 -356 651 0
-657 -357 672 0
-658 -358 252 0
-658 -359 273 0
-658 -360 294 0
-658 -361 315 0
-658 -362 336 0
-658 -363 357 0
-658 -364 378 0
-658 -365 399 0
-658 -366 420 0
-658 -367 441 0
-658 -368 462 0
-658 -369 483 0
-658 -370 504 0
-658 -371 525 0
-658 -372 546 0
-658 -373 567 0
-658 -374 588 0
-658 -375 609 0
-658 -376 630 0
-658 -377 651 0
-658 -378 672 0
-659 -379 252 0
-659 -380 273 0
-659 -381 294 0
-659 -382 315 0
-659 -383 336 0
-659 -384 357 0
-659 -385 378 0
-659 -386 399 0
-659 -387 420 0
-659 -388 441 0
-659 -389 462 0
-659 -390 483 0
-659 -391 504 0
-659 -392 525 0
-659 -393 546 0
-659 -394 567 0
-659 -395 588 0
-659 -396 609 0
-659 -397 630 0
-659 -398 651 0
-659 -399 672 0
-660 -400 252 0
-660 -401 273 0
-660 -402 294 0
-660 -403 315 0
-660 -404 336 0
-660 -405 357 0
-660 -406 378 0
-660 -407 399 0
-660 -408 420 0
-660 -409 441 0
-660 -410 462 0
-660 -411 483 0
-660 -412 504 0
-660 -413 525 0
-660 -414 546 0
-660 -415 567 0
-660 -416 588 0
-660 -417 609 0
-660 -418 630 0
-660 -419 651 0
-660 -420 672 0
-661 -421 252 0
-661 -422 273 0
-661 -423 294 0
-661 -424 315 0
-661 -425 336 0
-661 -426 357 0
-661 -427 378 0
-661 -428 399 0
-661 -429 420 0
-661 -430 441 0
-661 -431 462 0
-661 -432 483 0
-661 -433 504 0
-661 -434 525 0
-661 -435 546 0
-661 -436 567 0
-661 -437 588 0
-661 -438 609 0
-661 -439 630 0
-661 -440 651 0
-661 -441 672 0
-662 -442 252 0
-662 -443 273 0
-662 -444 294 0
-662 -445 315 0
-662 -446 336 0
-662 -447 357 0
-662 -448 378 0
-662 -449 399 0
-662 -450 420 0
-662 -451 441 0
-662 -452 462 0
-662 -453 483 0
-662 -454 504 0
-662 -455 525 0
-662 -456 546 0
-662 -457 567 0
-662 -458 588 0
-662 -459 609 0
-662 -460 630 0
-662 -461 651 0
-662 -462 672 0
-663 -463 252 0
-663 -464 273 0
-663 -465 294 0
-663 -466 315 0
-663 -467 336 0
-663 -468 357 0
-663 -469 378 0
-663 -470 399 0
-663 -471 420 0
-663 -472 441 0
-663 -473 462 0
-663 -474 483 0
-663 -475 504 0
-663 -476 525 0
-663 -477 546 0
-663 -478 567 0
-663 -479 588 0
-663 -480 609 0
-663 -481 630 0
-663 -482 651 0
-663 -483 672 0
-664 -484 252 0
-664 -485 273 0
-664 -486 294 0
-664 -487 315 0
-664 -488 336 0
-664 -489 357 0
-664 -490 378 0
-664 -491 399 0
-664 -492 420 0
-664 -493 441 0
-664 -494 462 0
-664 -495 483 0
-664 -496 504 0
-664 -497 525 0
-664 -498 546 0
-664 -499 567 0
-664 -500 588 0
-664 -501 609 0
-664 -502 630 0
-664 -503 651 0
-664 -504 672 0
-665 -505 252 0
-665 -506 273 0
-665 -507 294 0
-665 -508 315 0
-665 -509 336 0
-665 -510 357 0
-665 -511 378 0
-665 -512 399 0
-665 -513 420 0
-665 -514 441 0
-665 -515 462 0
-665 -516 483 0
-665 -517 504 0
-665 -518 525 0
-665 -519 546 0
-665 -520 567 0
-665 -521 588 0
-665 -522 609 0
-665 -523 630 0
-665 -524 651 0
-665 -525 672 0
-666 -526 252 0
-666 -527 273 0
-666 -528 294 0
-666 -529 315 0
-666 -530 336 0
-666 -531 357 0
-666 -532 378 0
-666 -533 399 0
-666 -534 420 0
-666 -535 441 0
-666 -536 462 0
-666 -537 483 0
-666 -538 504 0
-666 -539 525 0
-666 -540 546 0
-666 -541 567 0
-666 -542 588 0
-666 -543 609 0
-666 -544 630 0
-666 -545 651 0
-666 -546 672 0
-667 -547 252 0
-667 -548 273 0
-667 -549 294 0
-667 -550 315 0
-667 -551 336 0
-667 -552 357 0
-667 -553 378 0
-667 -554 399 0
-667 -555 420 0
-667 -556 441 0
-667 -557 462 0
-667 -558 483 0
-667 -559 504 0
-667 -560 525 0
-667 -561 546 0
-667 -562 567 0
-667 -563 588 0
-667 -564 609 0
-667 -565 630 0
-667 -566 651 0
-667 -567 672 0
-668 -568 252 0
-668 -569 273 0
-668 -570 294 0
-668 -571 315 0
-668 -572 336 0
-668 -573 357 0
-668 -574 378 0
-668 -575 399 0
-668 -576 420 0
-668 -577 441 0
-668 -578 462 0
-668 -579 483 0
-668 -580 504 0
-668 -581 525 0
-668 -582 546 0
-668 -583 567 0
-668 -584 588 0
-668 -585 609 0
-668 -586 630 0
-668 -587 651 0
-668 -588 672 0
-669 -589 252 0
-669 -590 273 0
-669 -591 294 0
-669 -592 315 0
-669 -593 336 0
-669 -594 357 0
-669 -595 378 0
-669 -596 399 0
-669 -597 420 0
-669 -598 441 0
-669 -599 462 0
-669 -600 483 0
-669 -601 504 0
-669 -602 525 0
-669 -603 546 0
-669 -604 567 0
-669 -605 588 0
-669 -606 609 0
-669 -607 630 0
-669 -608 651 0
-669 -609 672 0
-670 -610 252 0
-670 -611 273 0
-670 -612 294 0
-670 -613 315 0
-670 -614 336 0
-670 -615 357 0
-670 -616 378 0
-670 -617 399 0
-670 -618 420 0
-670 -619 441 0
-670 -620 462 0
-670 -621 483 0
-670 -622 504 0
-670 -623 525 0
-670 -624 546 0
-670 -625 567 0
-670 -626 588 0
-670 -627 609 0
-670 -628 630 0
-670 -629 651 0
-670 -630 672 0
-671 -631 252 0
-671 -632 273 0
-671 -633 294 0
-671 -634 315 0
-671 -635 336 0
-671 -636 357 0
-671 -637 378 0
-671 -638 399 0
-671 -639 420 0
-671 -640 441 0
-671 -641 462 0
-671 -642 483 0
-671 -643 504 0
-671 -644 525 0
-671 -645 546 0
-671 -646 567 0
-671 -647 588 0
-671 -648 609 0
-671 -649 630 0
-671 -650 651 0
-671 -651 672 0
-672 -652 252 0
-672 -653 273 0
-672 -654 294 0
-672 -655 315 0
-672 -656 336 0
-672 -657 357 0
-672 -658 378 0
-672 -659 399 0
-672 -660 420 0
-672 -661 441 0
-672 -662 462 0
-672 -663 483 0
-672 -664 504 0
-672 -665 525 0
-672 -666 546 0
-672 -667 567 0
-672 -668 588 0
-672 -669 609 0
-672 -670 630 0
-672 -671 651 0
-672 -672 672 0
-232 0
-254 0
-276 0
-298 0
-320 0
-342 0
-364 0
-386 0
-408 0
-430 0
-452 0
-474 0
-496 0
-518 0
-540 0
-562 0
-584 0
-606 0
-628 0
-650 0
-672 0
-1 673 0
-233 673 0
-253 673 0
-673 1 233 253 0
-2 674 0
-234 674 0
-274 674 0
-674 2 234 274 0
-3 675 0
-235 675 0
-295 675 0
-675 3 235 295 0
-4 676 0
-236 676 0
-316 676 0
-676 4 236 316 0
-5 677 0
-237 677 0
-337 677 0
-677 5 237 337 0
-6 678 0
-238 678 0
-358 678 0
-678 6 238 358 0
-7 679 0
-239 679 0
-379 679 0
-679 7 239 379 0
-8 680 0
-240 680 0
-400 680 0
-680 8 240 400 0
-9 681 0
-241 681 0
-421 681 0
-681 9 241 421 0
-10 682 0
-242 682 0
-442 682 0
-682 10 242 442 0
-11 683 0
-243 683 0
-463 683 0
-683 11 243 463 0
-12 684 0
-244 684 0
-484 684 0
-684 12 244 484 0
-13 685 0
-245 685 0
-505 685 0
-685 13 245 505 0
-14 686 0
-246 686 0
-526 686 0
-686 14 246 526 0
-15 687 0
-247 687 0
-547 687 0
-687 15 247 547 0
-16 688 0
-248 688 0
-568 688 0
-688 16 248 568 0
-17 689 0
-249 689 0
-589 689 0
-689 17 249 589 0
-18 690 0
-250 690 0
-610 690 0
-690 18 250 610 0
-19 691 0
-251 691 0
-631 691 0
-691 19 251 631 0
-20 692 0
-252 692 0
-652 692 0
-692 20 252 652 0
-21 693 0
-255 693 0
-275 693 0
-693 21 255 275 0
-22 694 0
-256 694 0
-296 694 0
-694 22 256 296 0
-23 695 0
-257 695 0
-317 695 0
-695 23 257 317 0
-24 696 0
-258 696 0
-338 696 0
-696 24 258 338 0
-25 697 0
-259 697 0
-359 697 0
-697 25 259 359 0
-26 698 0
-260 698 0
-380 698 0
-698 26 260 380 0
-27 699 0
-261 699 0
-401 699 0
-699 27 261 401 0
-28 700 0
-262 700 0
-422 700 0
-700 28 262 422 0
-29 701 0
-263 701 0
-443 701 0
-701 29 263 443 0
-30 702 0
-264 702 0
-464 702 0
-702 30 264 464 0
-31 703 0
-265 703 0
-485 703 0
-703 31 265 485 0
-32 704 0
-266 704 0
-506 704 0
-704 32 266 506 0
-33 705 0
-267 705 0
-527 705 0
-705 33 267 527 0
-34 706 0
-268 706 0
-548 706 0
-706 34 268 548 0
-35 707 0
-269 707 0
-569 707 0
-707 35 269 569 0
-36 708 0
-270 708 0
-590 708 0
-708 36 270 590 0
-37 709 0
-271 709 0
-611 709 0
-709 37 271 611 0
-38 710 0
-272 710 0
-632 710 0
-710 38 272 632 0
-39 711 0
-273 711 0
-653 711 0
-711 39 273 653 0
-40 712 0
-277 712 0
-297 712 0
-712 40 277 297 0
-41 713 0
-278 713 0
-318 713 0
-713 41 278 318 0
-42 714 0
-279 714 0
-339 714 0
-714 42 279 339 0
-43 715 0
-280 715 0
-360 715 0
-715 43 280 360 0
-44 716 0
-281 716 0
-381 716 0
-716 44 281 381 0
-45 717 0
-282 717 0
-402 717 0
-717 45 282 402 0
-46 718 0
-283 718 0
-423 718 0
-718 46 283 423 0
-47 719 0
-284 719 0
-444 719 0
-719 47 284 444 0
-48 720 0
-285 720 0
-465 720 0
-720 48 285 465 0
-49 721 0
-286 721 0
-486 721 0
-721 49 286 486 0
-50 722 0
-287 722 0
-507 722 0
-722 50 287 507 0
-51 723 0
-288 723 0
-528 723 0
-723 51 288 528 0
-52 724 0
-289 724 0
-549 724 0
-724 52 289 549 0
-53 725 0
-290 725 0
-570 725 0
-725 53 290 570 0
-54 726 0
-291 726 0
-591 726 0
-726 54 291 591 0
-55 727 0
-292 727 0
-612 727 0
-727 55 292 612 0
-56 728 0
-293 728 0
-633 728 0
-728 56 293 633 0
-57 729 0
-294 729 0
-654 729 0
-729 57 294 654 0
-58 730 0
-299 730 0
-319 730 0
-730 58 299 319 0
-59 731 0
-300 731 0
-340 731 0
-731 59 300 340 0
-60 732 0
-301 732 0
-361 732 0
-732 60 301 361 0
-61 733 0
-302 733 0
-382 733 0
-733 61 302 382 0
-62 734 0
-303 734 0
-403 734 0
-734 62 303 403 0
-63 735 0
-304 735 0
-424 735 0
-735 63 304 424 0
-64 736 0
-305 736 0
-445 736 0
-736 64 305 445 0
-65 737 0
-306 737 0
-466 737 0
-737 65 306 466 0
-66 738 0
-307 738 0
-487 738 0
-738 66 307 487 0
-67 739 0
-308 739 0
-508 739 0
-739 67 308 508 0
-68 740 0
-309 740 0
-529 740 0
-740 68 309 529 0
-69 741 0
-310 741 0
-550 741 0
-741 69 310 550 0
-70 742 0
-311 742 0
-571 742 0
-742 70 311 571 0
-71 743 0
-312 743 0
-592 743 0
-743 71 312 592 0
-72 744 0
-313 744 0
-613 744 0
-744 72 313 613 0
-73 745 0
-314 745 0
-634 745 0
-745 73 314 634 0
-74 746 0
-315 746 0
-655 746 0
-746 74 315 655 0
-75 747 0
-321 747 0
-341 747 0
-747 75 321 341 0
-76 748 0
-322 748 0
-362 748 0
-748 76 322 362 0
-77 749 0
-323 749 0
-383 749 0
-749 77 323 383 0
-78 750 0
-324 750 0
-404 750 0
-750 78 324 404 0
-79 751 0
-325 751 0
-425 751 0
-751 79 325 425 0
-80 752 0
-326 752 0
-446 752 0
-752 80 326 446 0
-81 753 0
-327 753 0
-467 753 0
-753 81 327 467 0
-82 754 0
-328 754 0
-488 754 0
-754 82 328 488 0
-83 755 0
-329 755 0
-509 755 0
-755 83 329 509 0
-84 756 0
-330 756 0
-530 756 0
-756 84 330 530 0
-85 757 0
-331 757 0
-551 757 0
-757 85 331 551 0
-86 758 0
-332 758 0
-572 758 0
-758 86 332 572 0
-87 759 0
-333 759 0
-593 759 0
-759 87 333 593 0
-88 760 0
-334 760 0
-614 760 0
-760 88 334 614 0
-89 761 0
-335 761 0
-635 761 0
-761 89 335 635 0
-90 762 0
-336 762 0
-656 762 0
-762 90 336 656 0
-91 763 0
-343 763 0
-363 763 0
-763 91 343 363 0
-92 764 0
-344 764 0
-384 764 0
-764 92 344 384 0
-93 765 0
-345 765 0
-405 765 0
-765 93 345 405 0
-94 766 0
-346 766 0
-426 766 0
-766 94 346 426 0
-95 767 0
-347 767 0
-447 767 0
-767 95 347 447 0
-96 768 0
-348 768 0
-468 768 0
-768 96 348 468 0
-97 769 0
-349 769 0
-489 769 0
-769 97 349 489 0
-98 770 0
-350 770 0
-510 770 0
-770 98 350 510 0
-99 771 0
-351 771 0
-531 771 0
-771 99 351 531 0
-100 772 0
-352 772 0
-552 772 0
-772 100 352 552 0
-101 773 0
-353 773 0
-573 773 0
-773 101 353 573 0
-102 774 0
-354 774 0
-594 774 0
-774 102 354 594 0
-103 775 0
-355 775 0
-615 775 0
-775 103 355 615 0
-104 776 0
-356 776 0
-636 776 0
-776 104 356 636 0
-105 777 0
-357 777 0
-657 777 0
-777 105 357 657 0
-106 778 0
-365 778 0
-385 778 0
-778 106 365 385 0
-107 779 0
-366 779 0
-406 779 0
-779 107 366 406 0
-108 780 0
-367 780 0
-427 780 0
-780 108 367 427 0
-109 781 0
-368 781 0
-448 781 0
-781 109 368 448 0
-110 782 0
-369 782 0
-469 782 0
-782 110 369 469 0
-111 783 0
-370 783 0
-490 783 0
-783 111 370 490 0
-112 784 0
-371 784 0
-511 784 0
-784 112 371 511 0
-113 785 0
-372 785 0
-532 785 0
-785 113 372 532 0
-114 786 0
-373 786 0
-553 786 0
-786 114 373 553 0
-115 787 0
-374 787 0
-574 787 0
-787 115 374 574 0
-116 788 0
-375 788 0
-595 788 0
-788 116 375 595 0
-117 789 0
-376 789 0
-616 789 0
-789 117 376 616 0
-118 790 0
-377 790 0
-637 790 0
-790 118 377 637 0
-119 791 0
-378 791 0
-658 791 0
-791 119 378 658 0
-120 792 0
-387 792 0
-407 792 0
-792 120 387 407 0
-121 793 0
-388 793 0
-428 793 0
-793 121 388 428 0
-122 794 0
-389 794 0
-449 794 0
-794 122 389 449 0
-123 795 0
-390 795 0
-470 795 0
-795 123 390 470 0
-124 796 0
-391 796 0
-491 796 0
-796 124 391 491 0
-125 797 0
-392 797 0
-512 797 0
-797 125 392 512 0
-126 798 0
-393 798 0
-533 798 0
-798 126 393 533 0
-127 799 0
-394 799 0
-554 799 0
-799 127 394 554 0
-128 800 0
-395 800 0
-575 800 0
-800 128 395 575 0
-129 801 0
-396 801 0
-596 801 0
-801 129 396 596 0
-130 802 0
-397 802 0
-617 802 0
-802 130 397 617 0
-131 803 0
-398 803 0
-638 803 0
-803 131 398 638 0
-132 804 0
-399 804 0
-659 804 0
-804 132 399 659 0
-133 805 0
-409 805 0
-429 805 0
-805 133 409 429 0
-134 806 0
-410 806 0
-450 806 0
-806 134 410 450 0
-135 807 0
-411 807 0
-471 807 0
-807 135 411 471 0
-136 808 0
-412 808 0
-492 808 0
-808 136 412 492 0
-137 809 0
-413 809 0
-513 809 0
-809 137 413 513 0
-138 810 0
-414 810 0
-534 810 0
-810 138 414 534 0
-139 811 0
-415 811 0
-555 811 0
-811 139 415 555 0
-140 812 0
-416 812 0
-576 812 0
-812 140 416 576 0
-141 813 0
-417 813 0
-597 813 0
-813 141 417 597 0
-142 814 0
-418 814 0
-618 814 0
-814 142 418 618 0
-143 815 0
-419 815 0
-639 815 0
-815 143 419 639 0
-144 816 0
-420 816 0
-660 816 0
-816 144 420 660 0
-145 817 0
-431 817 0
-451 817 0
-817 145 431 451 0
-146 818 0
-432 818 0
-472 818 0
-818 146 432 472 0
-147 819 0
-433 819 0
-493 819 0
-819 147 433 493 0
-148 820 0
-434 820 0
-514 820 0
-820 148 434 514 0
-149 821 0
-435 821 0
-535 821 0
-821 149 435 535 0
-150 822 0
-436 822 0
-556 822 0
-822 150 436 556 0
-151 823 0
-437 823 0
-577 823 0
-823 151 437 577 0
-152 824 0
-438 824 0
-598 824 0
-824 152 438 598 0
-153 825 0
-439 825 0
-619 825 0
-825 153 439 619 0
-154 826 0
-440 826 0
-640 826 0
-826 154 440 640 0
-155 827 0
-441 827 0
-661 827 0
-827 155 441 661 0
-156 828 0
-453 828 0
-473 828 0
-828 156 453 473 0
-157 829 0
-454 829 0
-494 829 0
-829 157 454 494 0
-158 830 0
-455 830 0
-515 830 0
-830 158 455 515 0
-159 831 0
-456 831 0
-536 831 0
-831 159 456 536 0
-160 832 0
-457 832 0
-557 832 0
-832 160 457 557 0
-161 833 0
-458 833 0
-578 833 0
-833 161 458 578 0
-162 834 0
-459 834 0
-599 834 0
-834 162 459 599 0
-163 835 0
-460 835 0
-620 835 0
-835 163 460 620 0
-164 836 0
-461 836 0
-641 836 0
-836 164 461 641 0
-165 837 0
-462 837 0
-662 837 0
-837 165 462 662 0
-166 838 0
-475 838 0
-495 838 0
-838 166 475 495 0
-167 839 0
-476 839 0
-516 839 0
-839 167 476 516 0
-168 840 0
-477 840 0
-537 840 0
-840 168 477 537 0
-169 841 0
-478 841 0
-558 841 0
-841 169 478 558 0
-170 842 0
-479 842 0
-579 842 0
-842 170 479 579 0
-171 843 0
-480 843 0
-600 843 0
-843 171 480 600 0
-172 844 0
-481 844 0
-621 844 0
-844 172 481 621 0
-173 845 0
-482 845 0
-642 845 0
-845 173 482 642 0
-174 846 0
-483 846 0
-663 846 0
-846 174 483 663 0
-175 847 0
-497 847 0
-517 847 0
-847 175 497 517 0
-176 848 0
-498 848 0
-538 848 0
-848 176 498 538 0
-177 849 0
-499 849 0
-559 849 0
-849 177 499 559 0
-178 850 0
-500 850 0
-580 850 0
-850 178 500 580 0
-179 851 0
-501 851 0
-601 851 0
-851 179 501 601 0
-180 852 0
-502 852 0
-622 852 0
-852 180 502 622 0
-181 853 0
-503 853 0
-643 853 0
-853 181 503 643 0
-182 854 0
-504 854 0
-664 854 0
-854 182 504 664 0
-183 855 0
-519 855 0
-539 855 0
-855 183 519 539 0
-184 856 0
-520 856 0
-560 856 0
-856 184 520 560 0
-185 857 0
-521 857 0
-581 857 0
-857 185 521 581 0
-186 858 0
-522 858 0
-602 858 0
-858 186 522 602 0
-187 859 0
-523 859 0
-623 859 0
-859 187 523 623 0
-188 860 0
-524 860 0
-644 860 0
-860 188 524 644 0
-189 861 0
-525 861 0
-665 861 0
-861 189 525 665 0
-190 862 0
-541 862 0
-561 862 0
-862 190 541 561 0
-191 863 0
-542 863 0
-582 863 0
-863 191 542 582 0
-192 864 0
-543 864 0
-603 864 0
-864 192 543 603 0
-193 865 0
-544 865 0
-624 865 0
-865 193 544 624 0
-194 866 0
-545 866 0
-645 866 0
-866 194 545 645 0
-195 867 0
-546 867 0
-666 867 0
-867 195 546 666 0
-196 868 0
-563 868 0
-583 868 0
-868 196 563 583 0
-197 869 0
-564 869 0
-604 869 0
-869 197 564 604 0
-198 870 0
-565 870 0
-625 870 0
-870 198 565 625 0
-199 871 0
-566 871 0
-646 871 0
-871 199 566 646 0
-200 872 0
-567 872 0
-667 872 0
-872 200 567 667 0
-201 873 0
-585 873 0
-605 873 0
-873 201 585 605 0
-202 874 0
-586 874 0
-626 874 0
-874 202 586 626 0
-203 875 0
-587 875 0
-647 875 0
-875 203 587 647 0
-204 876 0
-588 876 0
-668 876 0
-876 204 588 668 0
-205 877 0
-607 877 0
-627 877 0
-877 205 607 627 0
-206 878 0
-608 878 0
-648 878 0
-878 206 608 648 0
-207 879 0
-609 879 0
-669 879 0
-879 207 609 669 0
-208 880 0
-629 880 0
-649 880 0
-880 208 629 649 0
-209 881 0
-630 881 0
-670 881 0
-881 209 630 670 0
-210 882 0
-651 882 0
-671 882 0
-882 210 651 671 0
9283 0
-9284 0
-9285 0
-9286 0
-9287 0
-9288 0
-9289 0
-9290 0
-9291 0
-9292 0
-9293 0
-9294 0
-9295 0
-9296 0
-9297 0
-9298 0
-9299 0
-9300 0
-9301 0
-9302 0
-9303 0
-883 9283 0
-883 673 0
-9283 -673 883 0
-884 9283 0
-884 674 0
-9283 -674 884 0
-885 9283 0
-885 675 0
-9283 -675 885 0
-886 9283 0
-886 676 0
-9283 -676 886 0
-887 9283 0
-887 677 0
-9283 -677 887 0
-888 9283 0
-888 678 0
-9283 -678 888 0
-889 9283 0
-889 679 0
-9283 -679 889 0
-890 9283 0
-890 680 0
-9283 -680 890 0
-891 9283 0
-891 681 0
-9283 -681 891 0
-892 9283 0
-892 682 0
-9283 -682 892 0
-893 9283 0
-893 683 0
-9283 -683 893 0
-894 9283 0
-894 684 0
-9283 -684 894 0
-895 9283 0
-895 685 0
-9283 -685 895 0
-896 9283 0
-896 686 0
-9283 -686 896 0
-897 9283 0
-897 687 0
-9283 -687 897 0
-898 9283 0
-898 688 0
-9283 -688 898 0
-899 9283 0
-899 689 0
-9283 -689 899 0
-900 9283 0
-900 690 0
-9283 -690 900 0
-901 9283 0
-901 691 0
-9283 -691 901 0
-902 9283 0
-902 692 0
-9283 -692 902 0
-903 9284 0
-903 673 0
-9284 -673 903 0
-904 9284 0
-904 693 0
-9284 -693 904 0
-905 9284 0
-905 694 0
-9284 -694 905 0
-906 9284 0
-906 695 0
-9284 -695 906 0
-907 9284 0
-907 696 0
-9284 -696 907 0
-908 9284 0
-908 697 0
-9284 -697 908 0
-909 9284 0
-909 698 0
-9284 -698 909 0
-910 9284 0
-910 699 0
-9284 -699 910 0
-911 9284 0
-911 700 0
-9284 -700 911 0
-912 9284 0
-912 701 0
-9284 -701 912 0
-913 9284 0
-913 702 0
-9284 -702 913 0
-914 9284 0
-914 703 0
-9284 -703 914 0
-915 9284 0
-915 704 0
-9284 -704 915 0
-916 9284 0
-916 705 0
-9284 -705 916 0
-917 9284 0
-917 706 0
-9284 -706 917 0
-918 9284 0
-918 707 0
-9284 -707 918 0
-919 9284 0
-919 708 0
-9284 -708 919 0
-920 9284 0
-920 709 0
-9284 -709 920 0
-921 9284 0
-921 710 0
-9284 -710 921 0
-922 9284 0
-922 711 0
-9284 -711 922 0
-923 9285 0
-923 674 0
-9285 -674 923 0
-924 9285 0
-924 693 0
-9285 -693 924 0
-925 9285 0
-925 712 0
-9285 -712 925 0
-926 9285 0
-926 713 0
-9285 -713 926 0
-927 9285 0
-927 714 0
-9285 -714 927 0
-928 9285 0
-928 715 0
-9285 -715 928 0
-929 9285 0
-929 716 0
-9285 -716 929 0
-930 9285 0
-930 717 0
-9285 -717 930 0
-931 9285 0
-931 718 0
-9285 -718 931 0
-932 9285 0
-932 719 0
-9285 -719 932 0
-933 9285 0
-933 720 0
-9285 -720 933 0
-934 9285 0
-934 721 0
-9285 -721 934 0
-935 9285 0
-935 722 0
-9285 -722 935 0
-936 9285 0
-936 723 0
-9285 -723 936 0
-937 9285 0
-937 724 0
-9285 -724 937 0
-938 9285 0
-938 725 0
-9285 -725 938 0
-939 9285 0
-939 726 0
-9285 -726 939 0
-940 9285 0
-940 727 0
-9285 -727 940 0
-941 9285 0
-941 728 0
-9285 -728 941 0
-942 9285 0
-942 729 0
-9285 -729 942 0
-943 9286 0
-943 675 0
-9286 -675 943 0
-944 9286 0
-944 694 0
-9286 -694 944 0
-945 9286 0
-945 712 0
-9286 -712 945 0
-946 9286 0
-946 730 0
-9286 -730 946 0
-947 9286 0
-947 731 0
-9286 -731 947 0
-948 9286 0
-948 732 0
-9286 -732 948 0
-949 9286 0
-949 733 0
-9286 -733 949 0
-950 9286 0
-950 734 0
-9286 -734 950 0
-951 9286 0
-951 735 0
-9286 -735 951 0
-952 9286 0
-952 736 0
-9286 -736 952 0
-953 9286 0
-953 737 0
-9286 -737 953 0
-954 9286 0
-954 738 0
-9286 -738 954 0
-955 9286 0
-955 739 0
-9286 -739 955 0
-956 9286 0
-956 740 0
-9286 -740 956 0
-957 9286 0
-957 741 0
-9286 -741 957 0
-958 9286 0
-958 742 0
-9286 -742 958 0
-959 9286 0
-959 743 0
-9286 -743 959 0
-960 9286 0
-960 744 0
-9286 -744 960 0
-961 9286 0
-961 745 0
-9286 -745 961 0
-962 9286 0
-962 746 0
-9286 -746 962 0
-963 9287 0
-963 676 0
-9287 -676 963 0
-964 9287 0
-964 695 0
-9287 -695 964 0
-965 9287 0
-965 713 0
-9287 -713 965 0
-966 9287 0
-966 730 0
-9287 -730 966 0
-967 9287 0
-967 747 0
-9287 -747 967 0
-968 9287 0
-968 748 0
-9287 -748 968 0
-969 9287 0
-969 749 0
-9287 -749 969 0
-970 9287 0
-970 750 0
-9287 -750 970 0
-971 9287 0
-971 751 0
-9287 -751 971 0
-972 9287 0
-972 752 0
-9287 -752 972 0
-973 9287 0
-973 753 0
-9287 -753 973 0
-974 9287 0
-974 754 0
-9287 -754 974 0
-975 9287 0
-975 755 0
-9287 -755 975 0
-976 9287 0
-976 756 0
-9287 -756 976 0
-977 9287 0
-977 757 0
-9287 -757 977 0
-978 9287 0
-978 758 0
-9287 -758 978 0
-979 9287 0
-979 759 0
-9287 -759 979 0
-980 9287 0
-980 760 0
-9287 -760 980 0
-981 9287 0
-981 761 0
-9287 -761 981 0
-982 9287 0
-982 762 0
-9287 -762 982 0
-983 9288 0
-983 677 0
-9288 -677 983 0
-984 9288 0
-984 696 0
-9288 -696 984 0
-985 9288 0
-985 714 0
-9288 -714 985 0
-986 9288 0
-986 731 0
-9288 -731 986 0
-987 9288 0
-987 747 0
-9288 -747 987 0
-988 9288 0
-988 763 0
-9288 -763 988 0
-989 9288 0
-989 764 0
-9288 -764 989 0
-990 9288 0
-990 765 0
-9288 -765 990 0
-991 9288 0
-991 766 0
-9288 -766 991 0
-992 9288 0
-992 767 0
-9288 -767 992 0
-993 9288 0
-993 768 0
-9288 -768 993 0
-994 9288 0
-994 769 0
-9288 -769 994 0
-995 9288 0
-995 770 0
-9288 -770 995 0
-996 9288 0
-996 771 0
-9288 -771 996 0
-997 9288 0
-997 772 0
-9288 -772 997 0
-998 9288 0
-998 773 0
-9288 -773 998 0
-999 9288 0
-999 774 0
-9288 -774 999 0
-1000 9288 0
-1000 775 0
-9288 -775 1000 0
-1001 9288 0
-1001 776 0
-9288 -776 1001 0
-1002 9288 0
-1002 777 0
-9288 -777 1002 0
-1003 9289 0
-1003 678 0
-9289 -678 1003 0
-1004 9289 0
-1004 697 0
-9289 -697 1004 0
-1005 9289 0
-1005 715 0
-9289 -715 1005 0
-1006 9289 0
-1006 732 0
-9289 -732 1006 0
-1007 9289 0
-1007 748 0
-9289 -748 1007 0
-1008 9289 0
-1008 763 0
-9289 -763 1008 0
-1009 9289 0
-1009 778 0
-9289 -778 1009 0
-1010 9289 0
-1010 779 0
-9289 -779 1010 0
-1011 9289 0
-1011 780 0
-9289 -780 1011 0
-1012 9289 0
-1012 781 0
-9289 -781 1012 0
-1013 9289 0
-1013 782 0
-9289 -782 1013 0
-1014 9289 0
-1014 783 0
-9289 -783 1014 0
-1015 9289 0
-1015 784 0
-9289 -784 1015 0
-1016 9289 0
-1016 785 0
-9289 -785 1016 0
-1017 9289 0
-1017 786 0
-9289 -786 1017 0
-1018 9289 0
-1018 787 0
-9289 -787 1018 0
-1019 9289 0
-1019 788 0
-9289 -788 1019 0
-1020 9289 0
-1020 789 0
-9289 -789 1020 0
-1021 9289 0
-1021 790 0
-9289 -790 1021 0
-1022 9289 0
-1022 791 0
-9289 -791 1022 0
-1023 9290 0
-1023 679 0
-9290 -679 1023 0
-1024 9290 0
-1024 698 0
-9290 -698 1024 0
-1025 9290 0
-1025 716 0
-9290 -716 1025 0
-1026 9290 0
-1026 733 0
-9290 -733 1026 0
-1027 9290 0
-1027 749 0
-9290 -749 1027 0
-1028 9290 0
-1028 764 0
-9290 -764 1028 0
-1029 9290 0
-1029 778 0
-9290 -778 1029 0
-1030 9290 0
-1030 792 0
-9290 -792 1030 0
-1031 9290 0
-1031 793 0
-9290 -793 1031 0
-1032 9290 0
-1032 794 0
-9290 -794 1032 0
-1033 9290 0
-1033 795 0
-9290 -795 1033 0
-1034 9290 0
-1034 796 0
-9290 -796 1034 0
-1035 9290 0
-1035 797 0
-9290 -797 1035 0
-1036 9290 0
-1036 798 0
-9290 -798 1036 0
-1037 9290 0
-1037 799 0
-9290 -799 1037 0
-1038 9290 0
-1038 800 0
-9290 -800 1038 0
-1039 9290 0
-1039 801 0
-9290 -801 1039 0
-1040 9290 0
-1040 802 0
-9290 -802 1040 0
-1041 9290 0
-1041 803 0
-9290 -803 1041 0
-1042 9290 0
-1042 804 0
-9290 -804 1042 0
-1043 9291 0
-1043 680 0
-9291 -680 1043 0
-1044 9291 0
-1044 699 0
-9291 -699 1044 0
-1045 9291 0
-1045 717 0
-9291 -717 1045 0
-1046 9291 0
-1046 734 0
-9291 -734 1046 0
-1047 9291 0
-1047 750 0
-9291 -750 1047 0
-1048 9291 0
-1048 765 0
-9291 -765 1048 0
-1049 9291 0
-1049 779 0
-9291 -779 1049 0
-1050 9291 0
-1050 792 0
-9291 -792 1050 0
-1051 9291 0
-1051 805 0
-9291 -805 1051 0
-1052 9291 0
-1052 806 0
-9291 -806 1052 0
-1053 9291 0
-1053 807 0
-9291 -807 1053 0
-1054 9291 0
-1054 808 0
-9291 -808 1054 0
-1055 9291 0
-1055 809 0
-9291 -809 1055 0
-1056 9291 0
-1056 810 0
-9291 -810 1056 0
-1057 9291 0
-1057 811 0
-9291 -811 1057 0
-1058 9291 0
-1058 812 0
-9291 -812 1058 0
-1059 9291 0
-1059 813 0
-9291 -813 1059 0
-1060 9291 0
-1060 814 0
-9291 -814 1060 0
-1061 9291 0
-1061 815 0
-9291 -815 1061 0
-1062 9291 0
-1062 816 0
-9291 -816 1062 0
-1063 9292 0
-1063 681 0
-9292 -681 1063 0
-1064 9292 0
-1064 700 0
-9292 -700 1064 0
-1065 9292 0
-1065 718 0
-9292 -718 1065 0
-1066 9292 0
-1066 735 0
-9292 -735 1066 0
-1067 9292 0
-1067 751 0
-9292 -751 1067 0
-1068 9292 0
-1068 766 0
-9292 -766 1068 0
-1069 9292 0
-1069 780 0
-9292 -780 1069 0
-1070 9292 0
-1070 793 0
-9292 -793 1070 0
-1071 9292 0
-1071 805 0
-9292 -805 1071 0
-1072 9292 0
-1072 817 0
-9292 -817 1072 0
-1073 9292 0
-1073 818 0
-9292 -818 1073 0
-1074 9292 0
-1074 819 0
-9292 -819 1074 0
-1075 9292 0
-1075 820 0
-9292 -820 1075 0
-1076 9292 0
-1076 821 0
-9292 -821 1076 0
-1077 9292 0
-1077 822 0
-9292 -822 1077 0
-1078 9292 0
-1078 823 0
-9292 -823 1078 0
-1079 9292 0
-1079 824 0
-9292 -824 1079 0
-1080 9292 0
-1080 825 0
-9292 -825 1080 0
-1081 9292 0
-1081 826 0
-9292 -826 1081 0
-1082 9292 0
-1082 827 0
-9292 -827 1082 0
-1083 9293 0
-1083 682 0
-9293 -682 1083 0
-1084 9293 0
-1084 701 0
-9293 -701 1084 0
-1085 9293 0
-1085 719 0
-9293 -719 1085 0
-1086 9293 0
-1086 736 0
-9293 -736 1086 0
-1087 9293 0
-1087 752 0
-9293 -752 1087 0
-1088 9293 0
-1088 767 0
-9293 -767 1088 0
-1089 9293 0
-1089 781 0
-9293 -781 1089 0
-1090 9293 0
-1090 794 0
-9293 -794 1090 0
-1091 9293 0
-1091 806 0
-9293 -806 1091 0
-1092 9293 0
-1092 817 0
-9293 -817 1092 0
-1093 9293 0
-1093 828 0
-9293 -828 1093 0
-1094 9293 0
-1094 829 0
-9293 -829 1094 0
-1095 9293 0
-1095 830 0
-9293 -830 1095 0
-1096 9293 0
-1096 831 0
-9293 -831 1096 0
-1097 9293 0
-1097 832 0
-9293 -832 1097 0
-1098 9293 0
-1098 833 0
-9293 -833 1098 0
-1099 9293 0
-1099 834 0
-9293 -834 1099 0
-1100 9293 0
-1100 835 0
-9293 -835 1100 0
-1101 9293 0
-1101 836 0
-9293 -836 1101 0
-1102 9293 0
-1102 837 0
-9293 -837 1102 0
-1103 9294 0
-1103 683 0
-9294 -683 1103 0
-1104 9294 0
-1104 702 0
-9294 -702 1104 0
-1105 9294 0
-1105 720 0
-9294 -720 1105 0
-1106 9294 0
-1106 737 0
-9294 -737 1106 0
-1107 9294 0
-1107 753 0
-9294 -753 1107 0
-1108 9294 0
-1108 768 0
-9294 -768 1108 0
-1109 9294 0
-1109 782 0
-9294 -782 1109 0
-1110 9294 0
-1110 795 0
-9294 -795 1110 0
-1111 9294 0
-1111 807 0
-9294 -807 1111 0
-1112 9294 0
-1112 818 0
-9294 -818 1112 0
-1113 9294 0
-1113 828 0
-9294 -828 1113 0
-1114 9294 0
-1114 838 0
-9294 -838 1114 0
-1115 9294 0
-1115 839 0
-9294 -839 1115 0
-1116 9294 0
-1116 840 0
-9294 -840 1116 0
-1117 9294 0
-1117 841 0
-9294 -841 1117 0
-1118 9294 0
-1118 842 0
-9294 -842 1118 0
-1119 9294 0
-1119 843 0
-9294 -843 1119 0
-1120 9294 0
-1120 844 0
-9294 -844 1120 0
-1121 9294 0
-1121 845 0
-9294 -845 1121 0
-1122 9294 0
-1122 846 0
-9294 -846 1122 0
-1123 9295 0
-1123 684 0
-9295 -684 1123 0
-1124 9295 0
-1124 703 0
-9295 -703 1124 0
-1125 9295 0
-1125 721 0
-9295 -721 1125 0
-1126 9295 0
-1126 738 0
-9295 -738 1126 0
-1127 9295 0
-1127 754 0
-9295 -754 1127 0
-1128 9295 0
-1128 769 0
-9295 -769 1128 0
-1129 9295 0
-1129 783 0
-9295 -783 1129 0
-1130 9295 0
-1130 796 0
-9295 -796 1130 0
-1131 9295 0
-1131 808 0
-9295 -808 1131 0
-1132 9295 0
-1132 819 0
-9295 -819 1132 0
-1133 9295 0
-1133 829 0
-9295 -829 1133 0
-1134 9295 0
-1134 838 0
-9295 -838 1134 0
-1135 9295 0
-1135 847 0
-9295 -847 1135 0
-1136 9295 0
-1136 848 0
-9295 -848 1136 0
-1137 9295 0
-1137 849 0
-9295 -849 1137 0
-1138 9295 0
-1138 850 0
-9295 -850 1138 0
-1139 9295 0
-1139 851 0
-9295 -851 1139 0
-1140 9295 0
-1140 852 0
-9295 -852 1140 0
-1141 9295 0
-1141 853 0
-9295 -853 1141 0
-1142 9295 0
-1142 854 0
-9295 -854 1142 0
-1143 9296 0
-1143 685 0
-9296 -685 1143 0
-1144 9296 0
-1144 704 0
-9296 -704 1144 0
-1145 9296 0
-1145 722 0
-9296 -722 1145 0
-1146 9296 0
-1146 739 0
-9296 -739 1146 0
-1147 9296 0
-1147 755 0
-9296 -755 1147 0
-1148 9296 0
-1148 770 0
-9296 -770 1148 0
-1149 9296 0
-1149 784 0
-9296 -784 1149 0
-1150 9296 0
-1150 797 0
-9296 -797 1150 0
-1151 9296 0
-1151 809 0
-9296 -809 1151 0
-1152 9296 0
-1152 820 0
-9296 -820 1152 0
-1153 9296 0
-1153 830 0
-9296 -830 1153 0
-1154 9296 0
-1154 839 0
-9296 -839 1154 0
-1155 9296 0
-1155 847 0
-9296 -847 1155 0
-1156 9296 0
-1156 855 0
-9296 -855 1156 0
-1157 9296 0
-1157 856 0
-9296 -856 1157 0
-1158 9296 0
-1158 857 0
-9296 -857 1158 0
-1159 9296 0
-1159 858 0
-9296 -858 1159 0
-1160 9296 0
-1160 859 0
-9296 -859 1160 0
-1161 9296 0
-1161 860 0
-9296 -860 1161 0
-1162 9296 0
-1162 861 0
-9296 -861 1162 0
-1163 9297 0
-1163 686 0
-9297 -686 1163 0
-1164 9297 0
-1164 705 0
-9297 -705 1164 0
-1165 9297 0
-1165 723 0
-9297 -723 1165 0
-1166 9297 0
-1166 740 0
-9297 -740 1166 0
-1167 9297 0
-1167 756 0
-9297 -756 1167 0
-1168 9297 0
-1168 771 0
-9297 -771 1168 0
-1169 9297 0
-1169 785 0
-9297 -785 1169 0
-1170 9297 0
-1170 798 0
-9297 -798 1170 0
-1171 9297 0
-1171 810 0
-9297 -810 1171 0
-1172 9297 0
-1172 821 0
-9297 -821 1172 0
-1173 9297 0
-1173 831 0
-9297 -831 1173 0
-1174 9297 0
-1174 840 0
-9297 -840 1174 0
-1175 9297 0
-1175 848 0
-9297 -848 1175 0
-1176 9297 0
-1176 855 0
-9297 -855 1176 0
-1177 9297 0
-1177 862 0
-9297 -862 1177 0
-1178 9297 0
-1178 863 0
-9297 -863 1178 0
-1179 9297 0
-1179 864 0
-9297 -864 1179 0
-1180 9297 0
-1180 865 0
-9297 -865 1180 0
-1181 9297 0
-1181 866 0
-9297 -866 1181 0
-1182 9297 0
-1182 867 0
-9297 -867 1182 0
-1183 9298 0
-1183 687 0
-9298 -687 1183 0
-1184 9298 0
-1184 706 0
-9298 -706 1184 0
-1185 9298 0
-1185 724 0
-9298 -724 1185 0
-1186 9298 0
-1186 741 0
-9298 -741 1186 0
-1187 9298 0
-1187 757 0
-9298 -757 1187 0
-1188 9298 0
-1188 772 0
-9298 -772 1188 0
-1189 9298 0
-1189 786 0
-9298 -786 1189 0
-1190 9298 0
-1190 799 0
-9298 -799 1190 0
-1191 9298 0
-1191 811 0
-9298 -811 1191 0
-1192 9298 0
-1192 822 0
-9298 -822 1192 0
-1193 9298 0
-1193 832 0
-9298 -832 1193 0
-1194 9298 0
-1194 841 0
-9298 -841 1194 0
-1195 9298 0
-1195 849 0
-9298 -849 1195 0
-1196 9298 0
-1196 856 0
-9298 -856 1196 0
-1197 9298 0
-1197 862 0
-9298 -862 1197 0
-1198 9298 0
-1198 868 0
-9298 -868 1198 0
-1199 9298 0
-1199 869 0
-9298 -869 1199 0
-1200 9298 0
-1200 870 0
-9298 -870 1200 0
-1201 9298 0
-1201 871 0
-9298 -871 1201 0
-1202 9298 0
-1202 872 0
-9298 -872 1202 0
-1203 9299 0
-1203 688 0
-9299 -688 1203 0
-1204 9299 0
-1204 707 0
-9299 -707 1204 0
-1205 9299 0
-1205 725 0
-9299 -725 1205 0
-1206 9299 0
-1206 742 0
-9299 -742 1206 0
-1207 9299 0
-1207 758 0
-9299 -758 1207 0
-1208 9299 0
-1208 773 0
-9299 -773 1208 0
-1209 9299 0
-1209 787 0
-9299 -787 1209 0
-1210 9299 0
-1210 800 0
-9299 -800 1210 0
-1211 9299 0
-1211 812 0
-9299 -812 1211 0
-1212 9299 0
-1212 823 0
-9299 -823 1212 0
-1213 9299 0
-1213 833 0
-9299 -833 1213 0
-1214 9299 0
-1214 842 0
-9299 -842 1214 0
-1215 9299 0
-1215 850 0
-9299 -850 1215 0
-1216 9299 0
-1216 857 0
-9299 -857 1216 0
-1217 9299 0
-1217 863 0
-9299 -863 1217 0
-1218 9299 0
-1218 868 0
-9299 -868 1218 0
-1219 9299 0
-1219 873 0
-9299 -873 1219 0
-1220 9299 0
-1220 874 0
-9299 -874 1220 0
-1221 9299 0
-1221 875 0
-9299 -875 1221 0
-1222 9299 0
-1222 876 0
-9299 -876 1222 0
-1223 9300 0
-1223 689 0
-9300 -689 1223 0
-1224 9300 0
-1224 708 0
-9300 -708 1224 0
-1225 9300 0
-1225 726 0
-9300 -726 1225 0
-1226 9300 0
-1226 743 0
-9300 -743 1226 0
-1227 9300 0
-1227 759 0
-9300 -759 1227 0
-1228 9300 0
-1228 774 0
-9300 -774 1228 0
-1229 9300 0
-1229 788 0
-9300 -788 1229 0
-1230 9300 0
-1230 801 0
-9300 -801 1230 0
-1231 9300 0
-1231 813 0
-9300 -813 1231 0
-1232 9300 0
-1232 824 0
-9300 -824 1232 0
-1233 9300 0
-1233 834 0
-9300 -834 1233 0
-1234 9300 0
-1234 843 0
-9300 -843 1234 0
-1235 9300 0
-1235 851 0
-9300 -851 1235 0
-1236 9300 0
-1236 858 0
-9300 -858 1236 0
-1237 9300 0
-1237 864 0
-9300 -864 1237 0
-1238 9300 0
-1238 869 0
-9300 -869 1238 0
-1239 9300 0
-1239 873 0
-9300 -873 1239 0
-1240 9300 0
-1240 877 0
-9300 -877 1240 0
-1241 9300 0
-1241 878 0
-9300 -878 1241 0
-1242 9300 0
-1242 879 0
-9300 -879 1242 0
-1243 9301 0
-1243 690 0
-9301 -690 1243 0
-1244 9301 0
-1244 709 0
-9301 -709 1244 0
-1245 9301 0
-1245 727 0
-9301 -727 1245 0
-1246 9301 0
-1246 744 0
-9301 -744 1246 0
-1247 9301 0
-1247 760 0
-9301 -760 1247 0
-1248 9301 0
-1248 775 0
-9301 -775 1248 0
-1249 9301 0
-1249 789 0
-9301 -789 1249 0
-1250 9301 0
-1250 802 0
-9301 -802 1250 0
-1251 9301 0
-1251 814 0
-9301 -814 1251 0
-1252 9301 0
-1252 825 0
-9301 -825 1252 0
-1253 9301 0
-1253 835 0
-9301 -835 1253 0
-1254 9301 0
-1254 844 0
-9301 -844 1254 0
-1255 9301 0
-1255 852 0
-9301 -852 1255 0
-1256 9301 0
-1256 859 0
-9301 -859 1256 0
-1257 9301 0
-1257 865 0
-9301 -865 1257 0
-1258 9301 0
-1258 870 0
-9301 -870 1258 0
-1259 9301 0
-1259 874 0
-9301 -874 1259 0
-1260 9301 0
-1260 877 0
-9301 -877 1260 0
-1261 9301 0
-1261 880 0
-9301 -880 1261 0
-1262 9301 0
-1262 881 0
-9301 -881 1262 0
-1263 9302 0
-1263 691 0
-9302 -691 1263 0
-1264 9302 0
-1264 710 0
-9302 -710 1264 0
-1265 9302 0
-1265 728 0
-9302 -728 1265 0
-1266 9302 0
-1266 745 0
-9302 -745 1266 0
-1267 9302 0
-1267 761 0
-9302 -761 1267 0
-1268 9302 0
-1268 776 0
-9302 -776 1268 0
-1269 9302 0
-1269 790 0
-9302 -790 1269 0
-1270 9302 0
-1270 803 0
-9302 -803 1270 0
-1271 9302 0
-1271 815 0
-9302 -815 1271 0
-1272 9302 0
-1272 826 0
-9302 -826 1272 0
-1273 9302 0
-1273 836 0
-9302 -836 1273 0
-1274 9302 0
-1274 845 0
-9302 -845 1274 0
-1275 9302 0
-1275 853 0
-9302 -853 1275 0
-1276 9302 0
-1276 860 0
-9302 -860 1276 0
-1277 9302 0
-1277 866 0
-9302 -866 1277 0
-1278 9302 0
-1278 871 0
-9302 -871 1278 0
-1279 9302 0
-1279 875 0
-9302 -875 1279 0
-1280 9302 0
-1280 878 0
-9302 -878 1280 0
-1281 9302 0
-1281 880 0
-9302 -880 1281 0
-1282 9302 0
-1282 882 0
-9302 -882 1282 0
-1283 9303 0
-1283 692 0
-9303 -692 1283 0
-1284 9303 0
-1284 711 0
-9303 -711 1284 0
-1285 9303 0
-1285 729 0
-9303 -729 1285 0
-1286 9303 0
-1286 746 0
-9303 -746 1286 0
-1287 9303 0
-1287 762 0
-9303 -762 1287 0
-1288 9303 0
-1288 777 0
-9303 -777 1288 0
-1289 9303 0
-1289 791 0
-9303 -791 1289 0
-1290 9303 0
-1290 804 0
-9303 -804 1290 0
-1291 9303 0
-1291 816 0
-9303 -816 1291 0
-1292 9303 0
-1292 827 0
-9303 -827 1292 0
-1293 9303 0
-1293 837 0
-9303 -837 1293 0
-1294 9303 0
-1294 846 0
-9303 -846 1294 0
-1295 9303 0
-1295 854 0
-9303 -854 1295 0
-1296 9303 0
-1296 861 0
-9303 -861 1296 0
-1297 9303 0
-1297 867 0
-9303 -867 1297 0
-1298 9303 0
-1298 872 0
-9303 -872 1298 0
-1299 9303 0
-1299 876 0
-9303 -876 1299 0
-1300 9303 0
-1300 879 0
-9303 -879 1300 0
-1301 9303 0
-1301 881 0
-9303 -881 1301 0
-1302 9303 0
-1302 882 0
-9303 -882 1302 0
-1303 9304 0
-1303 673 0
-9304 -673 1303 0
-1304 9304 0
-1304 674 0
-9304 -674 1304 0
-1305 9304 0
-1305 675 0
-9304 -675 1305 0
-1306 9304 0
-1306 676 0
-9304 -676 1306 0
-1307 9304 0
-1307 677 0
-9304 -677 1307 0
-1308 9304 0
-1308 678 0
-9304 -678 1308 0
-1309 9304 0
-1309 679 0
-9304 -679 1309 0
-1310 9304 0
-1310 680 0
-9304 -680 1310 0
-1311 9304 0
-1311 681 0
-9304 -681 1311 0
-1312 9304 0
-1312 682 0
-9304 -682 1312 0
-1313 9304 0
-1313 683 0
-9304 -683 1313 0
-1314 9304 0
-1314 684 0
-9304 -684 1314 0
-1315 9304 0
-1315 685 0
-9304 -685 1315 0
-1316 9304 0
-1316 686 0
-9304 -686 1316 0
-1317 9304 0
-1317 687 0
-9304 -687 1317 0
-1318 9304 0
-1318 688 0
-9304 -688 1318 0
-1319 9304 0
-1319 689 0
-9304 -689 1319 0
-1320 9304 0
-1320 690 0
-9304 -690 1320 0
-1321 9304 0
-1321 691 0
-9304 -691 1321 0
-1322 9304 0
-1322 692 0
-9304 -692 1322 0
-1323 9305 0
-1323 673 0
-9305 -673 1323 0
-1324 9305 0
-1324 693 0
-9305 -693 1324 0
-1325 9305 0
-1325 694 0
-9305 -694 1325 0
-1326 9305 0
-1326 695 0
-9305 -695 1326 0
-1327 9305 0
-1327 696 0
-9305 -696 1327 0
-1328 9305 0
-1328 697 0
-9305 -697 1328 0
-1329 9305 0
-1329 698 0
-9305 -698 1329 0
-1330 9305 0
-1330 699 0
-9305 -699 1330 0
-1331 9305 0
-1331 700 0
-9305 -700 1331 0
-1332 9305 0
-1332 701 0
-9305 -701 1332 0
-1333 9305 0
-1333 702 0
-9305 -702 1333 0
-1334 9305 0
-1334 703 0
-9305 -703 1334 0
-1335 9305 0
-1335 704 0
-9305 -704 1335 0
-1336 9305 0
-1336 705 0
-9305 -705 1336 0
-1337 9305 0
-1337 706 0
-9305 -706 1337 0
-1338 9305 0
-1338 707 0
-9305 -707 1338 0
-1339 9305 0
-1339 708 0
-9305 -708 1339 0
-1340 9305 0
-1340 709 0
-9305 -709 1340 0
-1341 9305 0
-1341 710 0
-9305 -710 1341 0
-1342 9305 0
-1342 711 0
-9305 -711 1342 0
-1343 9306 0
-1343 674 0
-9306 -674 1343 0
-1344 9306 0
-1344 693 0
-9306 -693 1344 0
-1345 9306 0
-1345 712 0
-9306 -712 1345 0
-1346 9306 0
-1346 713 0
-9306 -713 1346 0
-1347 9306 0
-1347 714 0
-9306 -714 1347 0
-1348 9306 0
-1348 715 0
-9306 -715 1348 0
-1349 9306 0
-1349 716 0
-9306 -716 1349 0
-1350 9306 0
-1350 717 0
-9306 -717 1350 0
-1351 9306 0
-1351 718 0
-9306 -718 1351 0
-1352 9306 0
-1352 719 0
-9306 -719 1352 0
-1353 9306 0
-1353 720 0
-9306 -720 1353 0
-1354 9306 0
-1354 721 0
-9306 -721 1354 0
-1355 9306 0
-1355 722 0
-9306 -722 1355 0
-1356 9306 0
-1356 723 0
-9306 -723 1356 0
-1357 9306 0
-1357 724 0
-9306 -724 1357 0
-1358 9306 0
-1358 725 0
-9306 -725 1358 0
-1359 9306 0
-1359 726 0
-9306 -726 1359 0
-1360 9306 0
-1360 727 0
-9306 -727 1360 0
-1361 9306 0
-1361 728 0
-9306 -728 1361 0
-1362 9306 0
-1362 729 0
-9306 -729 1362 0
-1363 9307 0
-1363 675 0
-9307 -675 1363 0
-1364 9307 0
-1364 694 0
-9307 -694 1364 0
-1365 9307 0
-1365 712 0
-9307 -712 1365 0
-1366 9307 0
-1366 730 0
-9307 -730 1366 0
-1367 9307 0
-1367 731 0
-9307 -731 1367 0
-1368 9307 0
-1368 732 0
-9307 -732 1368 0
-1369 9307 0
-1369 733 0
-9307 -733 1369 0
-1370 9307 0
-1370 734 0
-9307 -734 1370 0
-1371 9307 0
-1371 735 0
-9307 -735 1371 0
-1372 9307 0
-1372 736 0
-9307 -736 1372 0
-1373 9307 0
-1373 737 0
-9307 -737 1373 0
-1374 9307 0
-1374 738 0
-9307 -738 1374 0
-1375 9307 0
-1375 739 0
-9307 -739 1375 0
-1376 9307 0
-1376 740 0
-9307 -740 1376 0
-1377 9307 0
-1377 741 0
-9307 -741 1377 0
-1378 9307 0
-1378 742 0
-9307 -742 1378 0
-1379 9307 0
-1379 743 0
-9307 -743 1379 0
-1380 9307 0
-1380 744 0
-9307 -744 1380 0
-1381 9307 0
-1381 745 0
-9307 -745 1381 0
-1382 9307 0
-1382 746 0
-9307 -746 1382 0
-1383 9308 0
-1383 676 0
-9308 -676 1383 0
-1384 9308 0
-1384 695 0
-9308 -695 1384 0
-1385 9308 0
-1385 713 0
-9308 -713 1385 0
-1386 9308 0
-1386 730 0
-9308 -730 1386 0
-1387 9308 0
-1387 747 0
-9308 -747 1387 0
-1388 9308 0
-1388 748 0
-9308 -748 1388 0
-1389 9308 0
-1389 749 0
-9308 -749 1389 0
-1390 9308 0
-1390 750 0
-9308 -750 1390 0
-1391 9308 0
-1391 751 0
-9308 -751 1391 0
-1392 9308 0
-1392 752 0
-9308 -752 1392 0
-1393 9308 0
-1393 753 0
-9308 -753 1393 0
-1394 9308 0
-1394 754 0
-9308 -754 1394 0
-1395 9308 0
-1395 755 0
-9308 -755 1395 0
-1396 9308 0
-1396 756 0
-9308 -756 1396 0
-1397 9308 0
-1397 757 0
-9308 -757 1397 0
-1398 9308 0
-1398 758 0
-9308 -758 1398 0
-1399 9308 0
-1399 759 0
-9308 -759 1399 0
-1400 9308 0
-1400 760 0
-9308 -760 1400 0
-1401 9308 0
-1401 761 0
-9308 -761 1401 0
-1402 9308 0
-1402 762 0
-9308 -762 1402 0
-1403 9309 0
-1403 677 0
-9309 -677 1403 0
-1404 9309 0
-1404 696 0
-9309 -696 1404 0
-1405 9309 0
-1405 714 0
-9309 -714 1405 0
-1406 9309 0
-1406 731 0
-9309 -731 1406 0
-1407 9309 0
-1407 747 0
-9309 -747 1407 0
-1408 9309 0
-1408 763 0
-9309 -763 1408 0
-1409 9309 0
-1409 764 0
-9309 -764 1409 0
-1410 9309 0
-1410 765 0
-9309 -765 1410 0
-1411 9309 0
-1411 766 0
-9309 -766 1411 0
-1412 9309 0
-1412 767 0
-9309 -767 1412 0
-1413 9309 0
-1413 768 0
-9309 -768 1413 0
-1414 9309 0
-1414 769 0
-9309 -769 1414 0
-1415 9309 0
-1415 770 0
-9309 -770 1415 0
-1416 9309 0
-1416 771 0
-9309 -771 1416 0
-1417 9309 0
-1417 772 0
-9309 -772 1417 0
-1418 9309 0
-1418 773 0
-9309 -773 1418 0
-1419 9309 0
-1419 774 0
-9309 -774 1419 0
-1420 9309 0
-1420 775 0
-9309 -775 1420 0
-1421 9309 0
-1421 776 0
-9309 -776 1421 0
-1422 9309 0
-1422 777 0
-9309 -777 1422 0
-1423 9310 0
-1423 678 0
-9310 -678 1423 0
-1424 9310 0
-1424 697 0
-9310 -697 1424 0
-1425 9310 0
-1425 715 0
-9310 -715 1425 0
-1426 9310 0
-1426 732 0
-9310 -732 1426 0
-1427 9310 0
-1427 748 0
-9310 -748 1427 0
-1428 9310 0
-1428 763 0
-9310 -763 1428 0
-1429 9310 0
-1429 778 0
-9310 -778 1429 0
-1430 9310 0
-1430 779 0
-9310 -779 1430 0
-1431 9310 0
-1431 780 0
-9310 -780 1431 0
-1432 9310 0
-1432 781 0
-9310 -781 1432 0
-1433 9310 0
-1433 782 0
-9310 -782 1433 0
-1434 9310 0
-1434 783 0
-9310 -783 1434 0
-1435 9310 0
-1435 784 0
-9310 -784 1435 0
-1436 9310 0
-1436 785 0
-9310 -785 1436 0
-1437 9310 0
-1437 786 0
-9310 -786 1437 0
-1438 9310 0
-1438 787 0
-9310 -787 1438 0
-1439 9310 0
-1439 788 0
-9310 -788 1439 0
-1440 9310 0
-1440 789 0
-9310 -789 1440 0
-1441 9310 0
-1441 790 0
-9310 -790 1441 0
-1442 9310 0
-1442 791 0
-9310 -791 1442 0
-1443 9311 0
-1443 679 0
-9311 -679 1443 0
-1444 9311 0
-1444 698 0
-9311 -698 1444 0
-1445 9311 0
-1445 716 0
-9311 -716 1445 0
-1446 9311 0
-1446 733 0
-9311 -733 1446 0
-1447 9311 0
-1447 749 0
-9311 -749 1447 0
-1448 9311 0
-1448 764 0
-9311 -764 1448 0
-1449 9311 0
-1449 778 0
-9311 -778 1449 0
-1450 9311 0
-1450 792 0
-9311 -792 1450 0
-1451 9311 0
-1451 793 0
-9311 -793 1451 0
-1452 9311 0
-1452 794 0
-9311 -794 1452 0
-1453 9311 0
-1453 795 0
-9311 -795 1453 0
-1454 9311 0
-1454 796 0
-9311 -796 1454 0
-1455 9311 0
-1455 797 0
-9311 -797 1455 0
-1456 9311 0
-1456 798 0
-9311 -798 1456 0
-1457 9311 0
-1457 799 0
-9311 -799 1457 0
-1458 9311 0
-1458 800 0
-9311 -800 1458 0
-1459 9311 0
-1459 801 0
-9311 -801 1459 0
-1460 9311 0
-1460 802 0
-9311 -802 1460 0
-1461 9311 0
-1461 803 0
-9311 -803 1461 0
-1462 9311 0
-1462 804 0
-9311 -804 1462 0
-1463 9312 0
-1463 680 0
-9312 -680 1463 0
-1464 9312 0
-1464 699 0
-9312 -699 1464 0
-1465 9312 0
-1465 717 0
-9312 -717 1465 0
-1466 9312 0
-1466 734 0
-9312 -734 1466 0
-1467 9312 0
-1467 750 0
-9312 -750 1467 0
-1468 9312 0
-1468 765 0
-9312 -765 1468 0
-1469 9312 0
-1469 779 0
-9312 -779 1469 0
-1470 9312 0
-1470 792 0
-9312 -792 1470 0
-1471 9312 0
-1471 805 0
-9312 -805 1471 0
-1472 9312 0
-1472 806 0
-9312 -806 1472 0
-1473 9312 0
-1473 807 0
-9312 -807 1473 0
-1474 9312 0
-1474 808 0
-9312 -808 1474 0
-1475 9312 0
-1475 809 0
-9312 -809 1475 0
-1476 9312 0
-1476 810 0
-9312 -810 1476 0
-1477 9312 0
-1477 811 0
-9312 -811 1477 0
-1478 9312 0
-1478 812 0
-9312 -812 1478 0
-1479 9312 0
-1479 813 0
-9312 -813 1479 0
-1480 9312 0
-1480 814 0
-9312 -814 1480 0
-1481 9312 0
-1481 815 0
-9312 -815 1481 0
-1482 9312 0
-1482 816 0
-9312 -816 1482 0
-1483 9313 0
-1483 681 0
-9313 -681 1483 0
-1484 9313 0
-1484 700 0
-9313 -700 1484 0
-1485 9313 0
-1485 718 0
-9313 -718 1485 0
-1486 9313 0
-1486 735 0
-9313 -735 1486 0
-1487 9313 0
-1487 751 0
-9313 -751 1487 0
-1488 9313 0
-1488 766 0
-9313 -766 1488 0
-1489 9313 0
-1489 780 0
-9313 -780 1489 0
-1490 9313 0
-1490 793 0
-9313 -793 1490 0
-1491 9313 0
-1491 805 0
-9313 -805 1491 0
-1492 9313 0
-1492 817 0
-9313 -817 1492 0
-1493 9313 0
-1493 818 0
-9313 -818 1493 0
-1494 9313 0
-1494 819 0
-9313 -819 1494 0
-1495 9313 0
-1495 820 0
-9313 -820 1495 0
-1496 9313 0
-1496 821 0
-9313 -821 1496 0
-1497 9313 0
-1497 822 0
-9313 -822 1497 0
-1498 9313 0
-1498 823 0
-9313 -823 1498 0
-1499 9313 0
-1499 824 0
-9313 -824 1499 0
-1500 9313 0
-1500 825 0
-9313 -825 1500 0
-1501 9313 0
-1501 826 0
-9313 -826 1501 0
-1502 9313 0
-1502 827 0
-9313 -827 1502 0
-1503 9314 0
-1503 682 0
-9314 -682 1503 0
-1504 9314 0
-1504 701 0
-9314 -701 1504 0
-1505 9314 0
-1505 719 0
-9314 -719 1505 0
-1506 9314 0
-1506 736 0
-9314 -736 1506 0
-1507 9314 0
-1507 752 0
-9314 -752 1507 0
-1508 9314 0
-1508 767 0
-9314 -767 1508 0
-1509 9314 0
-1509 781 0
-9314 -781 1509 0
-1510 9314 0
-1510 794 0
-9314 -794 1510 0
-1511 9314 0
-1511 806 0
-9314 -806 1511 0
-1512 9314 0
-1512 817 0
-9314 -817 1512 0
-1513 9314 0
-1513 828 0
-9314 -828 1513 0
-1514 9314 0
-1514 829 0
-9314 -829 1514 0
-1515 9314 0
-1515 830 0
-9314 -830 1515 0
-1516 9314 0
-1516 831 0
-9314 -831 1516 0
-1517 9314 0
-1517 832 0
-9314 -832 1517 0
-1518 9314 0
-1518 833 0
-9314 -833 1518 0
-1519 9314 0
-1519 834 0
-9314 -834 1519 0
-1520 9314 0
-1520 835 0
-9314 -835 1520 0
-1521 9314 0
-1521 836 0
-9314 -836 1521 0
-1522 9314 0
-1522 837 0
-9314 -837 1522 0
-1523 9315 0
-1523 683 0
-9315 -683 1523 0
-1524 9315 0
-1524 702 0
-9315 -702 1524 0
-1525 9315 0
-1525 720 0
-9315 -720 1525 0
-1526 9315 0
-1526 737 0
-9315 -737 1526 0
-1527 9315 0
-1527 753 0
-9315 -753 1527 0
-1528 9315 0
-1528 768 0
-9315 -768 1528 0
-1529 9315 0
-1529 782 0
-9315 -782 1529 0
-1530 9315 0
-1530 795 0
-9315 -795 1530 0
-1531 9315 0
-1531 807 0
-9315 -807 1531 0
-1532 9315 0
-1532 818 0
-9315 -818 1532 0
-1533 9315 0
-1533 828 0
-9315 -828 1533 0
-1534 9315 0
-1534 838 0
-9315 -838 1534 0
-1535 9315 0
-1535 839 0
-9315 -839 1535 0
-1536 9315 0
-1536 840 0
-9315 -840 1536 0
-1537 9315 0
-1537 841 0
-9315 -841 1537 0
-1538 9315 0
-1538 842 0
-9315 -842 1538 0
-1539 9315 0
-1539 843 0
-9315 -843 1539 0
-1540 9315 0
-1540 844 0
-9315 -844 1540 0
-1541 9315 0
-1541 845 0
-9315 -845 1541 0
-1542 9315 0
-1542 846 0
-9315 -846 1542 0
-1543 9316 0
-1543 684 0
-9316 -684 1543 0
-1544 9316 0
-1544 703 0
-9316 -703 1544 0
-1545 9316 0
-1545 721 0
-9316 -721 1545 0
-1546 9316 0
-1546 738 0
-9316 -738 1546 0
-1547 9316 0
-1547 754 0
-9316 -754 1547 0
-1548 9316 0
-1548 769 0
-9316 -769 1548 0
-1549 9316 0
-1549 783 0
-9316 -783 1549 0
-1550 9316 0
-1550 796 0
-9316 -796 1550 0
-1551 9316 0
-1551 808 0
-9316 -808 1551 0
-1552 9316 0
-1552 819 0
-9316 -819 1552 0
-1553 9316 0
-1553 829 0
-9316 -829 1553 0
-1554 9316 0
-1554 838 0
-9316 -838 1554 0
-1555 9316 0
-1555 847 0
-9316 -847 1555 0
-1556 9316 0
-1556 848 0
-9316 -848 1556 0
-1557 9316 0
-1557 849 0
-9316 -849 1557 0
-1558 9316 0
-1558 850 0
-9316 -850 1558 0
-1559 9316 0
-1559 851 0
-9316 -851 1559 0
-1560 9316 0
-1560 852 0
-9316 -852 1560 0
-1561 9316 0
-1561 853 0
-9316 -853 1561 0
-1562 9316 0
-1562 854 0
-9316 -854 1562 0
-1563 9317 0
-1563 685 0
-9317 -685 1563 0
-1564 9317 0
-1564 704 0
-9317 -704 1564 0
-1565 9317 0
-1565 722 0
-9317 -722 1565 0
-1566 9317 0
-1566 739 0
-9317 -739 1566 0
-1567 9317 0
-1567 755 0
-9317 -755 1567 0
-1568 9317 0
-1568 770 0
-9317 -770 1568 0
-1569 9317 0
-1569 784 0
-9317 -784 1569 0
-1570 9317 0
-1570 797 0
-9317 -797 1570 0
-1571 9317 0
-1571 809 0
-9317 -809 1571 0
-1572 9317 0
-1572 820 0
-9317 -820 1572 0
-1573 9317 0
-1573 830 0
-9317 -830 1573 0
-1574 9317 0
-1574 839 0
-9317 -839 1574 0
-1575 9317 0
-1575 847 0
-9317 -847 1575 0
-1576 9317 0
-1576 855 0
-9317 -855 1576 0
-1577 9317 0
-1577 856 0
-9317 -856 1577 0
-1578 9317 0
-1578 857 0
-9317 -857 1578 0
-1579 9317 0
-1579 858 0
-9317 -858 1579 0
-1580 9317 0
-1580 859 0
-9317 -859 1580 0
-1581 9317 0
-1581 860 0
-9317 -860 1581 0
-1582 9317 0
-1582 861 0
-9317 -861 1582 0
-1583 9318 0
-1583 686 0
-9318 -686 1583 0
-1584 9318 0
-1584 705 0
-9318 -705 1584 0
-1585 9318 0
-1585 723 0
-9318 -723 1585 0
-1586 9318 0
-1586 740 0
-9318 -740 1586 0
-1587 9318 0
-1587 756 0
-9318 -756 1587 0
-1588 9318 0
-1588 771 0
-9318 -771 1588 0
-1589 9318 0
-1589 785 0
-9318 -785 1589 0
-1590 9318 0
-1590 798 0
-9318 -798 1590 0
-1591 9318 0
-1591 810 0
-9318 -810 1591 0
-1592 9318 0
-1592 821 0
-9318 -821 1592 0
-1593 9318 0
-1593 831 0
-9318 -831 1593 0
-1594 9318 0
-1594 840 0
-9318 -840 1594 0
-1595 9318 0
-1595 848 0
-9318 -848 1595 0
-1596 9318 0
-1596 855 0
-9318 -855 1596 0
-1597 9318 0
-1597 862 0
-9318 -862 1597 0
-1598 9318 0
-1598 863 0
-9318 -863 1598 0
-1599 9318 0
-1599 864 0
-9318 -864 1599 0
-1600 9318 0
-1600 865 0
-9318 -865 1600 0
-1601 9318 0
-1601 866 0
-9318 -866 1601 0
-1602 9318 0
-1602 867 0
-9318 -867 1602 0
-1603 9319 0
-1603 687 0
-9319 -687 1603 0
-1604 9319 0
-1604 706 0
-9319 -706 1604 0
-1605 9319 0
-1605 724 0
-9319 -724 1605 0
-1606 9319 0
-1606 741 0
-9319 -741 1606 0
-1607 9319 0
-1607 757 0
-9319 -757 1607 0
-1608 9319 0
-1608 772 0
-9319 -772 1608 0
-1609 9319 0
-1609 786 0
-9319 -786 1609 0
-1610 9319 0
-1610 799 0
-9319 -799 1610 0
-1611 9319 0
-1611 811 0
-9319 -811 1611 0
-1612 9319 0
-1612 822 0
-9319 -822 1612 0
-1613 9319 0
-1613 832 0
-9319 -832 1613 0
-1614 9319 0
-1614 841 0
-9319 -841 1614 0
-1615 9319 0
-1615 849 0
-9319 -849 1615 0
-1616 9319 0
-1616 856 0
-9319 -856 1616 0
-1617 9319 0
-1617 862 0
-9319 -862 1617 0
-1618 9319 0
-1618 868 0
-9319 -868 1618 0
-1619 9319 0
-1619 869 0
-9319 -869 1619 0
-1620 9319 0
-1620 870 0
-9319 -870 1620 0
-1621 9319 0
-1621 871 0
-9319 -871 1621 0
-1622 9319 0
-1622 872 0
-9319 -872 1622 0
-1623 9320 0
-1623 688 0
-9320 -688 1623 0
-1624 9320 0
-1624 707 0
-9320 -707 1624 0
-1625 9320 0
-1625 725 0
-9320 -725 1625 0
-1626 9320 0
-1626 742 0
-9320 -742 1626 0
-1627 9320 0
-1627 758 0
-9320 -758 1627 0
-1628 9320 0
-1628 773 0
-9320 -773 1628 0
-1629 9320 0
-1629 787 0
-9320 -787 1629 0
-1630 9320 0
-1630 800 0
-9320 -800 1630 0
-1631 9320 0
-1631 812 0
-9320 -812 1631 0
-1632 9320 0
-1632 823 0
-9320 -823 1632 0
-1633 9320 0
-1633 833 0
-9320 -833 1633 0
-1634 9320 0
-1634 842 0
-9320 -842 1634 0
-1635 9320 0
-1635 850 0
-9320 -850 1635 0
-1636 9320 0
-1636 857 0
-9320 -857 1636 0
-1637 9320 0
-1637 863 0
-9320 -863 1637 0
-1638 9320 0
-1638 868 0
-9320 -868 1638 0
-1639 9320 0
-1639 873 0
-9320 -873 1639 0
-1640 9320 0
-1640 874 0
-9320 -874 1640 0
-1641 9320 0
-1641 875 0
-9320 -875 1641 0
-1642 9320 0
-1642 876 0
-9320 -876 1642 0
-1643 9321 0
-1643 689 0
-9321 -689 1643 0
-1644 9321 0
-1644 708 0
-9321 -708 1644 0
-1645 9321 0
-1645 726 0
-9321 -726 1645 0
-1646 9321 0
-1646 743 0
-9321 -743 1646 0
-1647 9321 0
-1647 759 0
-9321 -759 1647 0
-1648 9321 0
-1648 774 0
-9321 -774 1648 0
-1649 9321 0
-1649 788 0
-9321 -788 1649 0
-1650 9321 0
-1650 801 0
-9321 -801 1650 0
-1651 9321 0
-1651 813 0
-9321 -813 1651 0
-1652 9321 0
-1652 824 0
-9321 -824 1652 0
-1653 9321 0
-1653 834 0
-9321 -834 1653 0
-1654 9321 0
-1654 843 0
-9321 -843 1654 0
-1655 9321 0
-1655 851 0
-9321 -851 1655 0
-1656 9321 0
-1656 858 0
-9321 -858 1656 0
-1657 9321 0
-1657 864 0
-9321 -864 1657 0
-1658 9321 0
-1658 869 0
-9321 -869 1658 0
-1659 9321 0
-1659 873 0
-9321 -873 1659 0
-1660 9321 0
-1660 877 0
-9321 -877 1660 0
-1661 9321 0
-1661 878 0
-9321 -878 1661 0
-1662 9321 0
-1662 879 0
-9321 -879 1662 0
-1663 9322 0
-1663 690 0
-9322 -690 1663 0
-1664 9322 0
-1664 709 0
-9322 -709 1664 0
-1665 9322 0
-1665 727 0
-9322 -727 1665 0
-1666 9322 0
-1666 744 0
-9322 -744 1666 0
-1667 9322 0
-1667 760 0
-9322 -760 1667 0
-1668 9322 0
-1668 775 0
-9322 -775 1668 0
-1669 9322 0
-1669 789 0
-9322 -789 1669 0
-1670 9322 0
-1670 802 0
-9322 -802 1670 0
-1671 9322 0
-1671 814 0
-9322 -814 1671 0
-1672 9322 0
-1672 825 0
-9322 -825 1672 0
-1673 9322 0
-1673 835 0
-9322 -835 1673 0
-1674 9322 0
-1674 844 0
-9322 -844 1674 0
-1675 9322 0
-1675 852 0
-9322 -852 1675 0
-1676 9322 0
-1676 859 0
-9322 -859 1676 0
-1677 9322 0
-1677 865 0
-9322 -865 1677 0
-1678 9322 0
-1678 870 0
-9322 -870 1678 0
-1679 9322 0
-1679 874 0
-9322 -874 1679 0
-1680 9322 0
-1680 877 0
-9322 -877 1680 0
-1681 9322 0
-1681 880 0
-9322 -880 1681 0
-1682 9322 0
-1682 881 0
-9322 -881 1682 0
-1683 9323 0
-1683 691 0
-9323 -691 1683 0
-1684 9323 0
-1684 710 0
-9323 -710 1684 0
-1685 9323 0
-1685 728 0
-9323 -728 1685 0
-1686 9323 0
-1686 745 0
-9323 -745 1686 0
-1687 9323 0
-1687 761 0
-9323 -761 1687 0
-1688 9323 0
-1688 776 0
-9323 -776 1688 0
-1689 9323 0
-1689 790 0
-9323 -790 1689 0
-1690 9323 0
-1690 803 0
-9323 -803 1690 0
-1691 9323 0
-1691 815 0
-9323 -815 1691 0
-1692 9323 0
-1692 826 0
-9323 -826 1692 0
-1693 9323 0
-1693 836 0
-9323 -836 1693 0
-1694 9323 0
-1694 845 0
-9323 -845 1694 0
-1695 9323 0
-1695 853 0
-9323 -853 1695 0
-1696 9323 0
-1696 860 0
-9323 -860 1696 0
-1697 9323 0
-1697 866 0
-9323 -866 1697 0
-1698 9323 0
-1698 871 0
-9323 -871 1698 0
-1699 9323 0
-1699 875 0
-9323 -875 1699 0
-1700 9323 0
-1700 878 0
-9323 -878 1700 0
-1701 9323 0
-1701 880 0
-9323 -880 1701 0
-1702 9323 0
-1702 882 0
-9323 -882 1702 0
-1703 9324 0
-1703 692 0
-9324 -692 1703 0
-1704 9324 0
-1704 711 0
-9324 -711 1704 0
-1705 9324 0
-1705 729 0
-9324 -729 1705 0
-1706 9324 0
-1706 746 0
-9324 -746 1706 0
-1707 9324 0
-1707 762 0
-9324 -762 1707 0
-1708 9324 0
-1708 777 0
-9324 -777 1708 0
-1709 9324 0
-1709 791 0
-9324 -791 1709 0
-1710 9324 0
-1710 804 0
-9324 -804 1710 0
-1711 9324 0
-1711 816 0
-9324 -816 1711 0
-1712 9324 0
-1712 827 0
-9324 -827 1712 0
-1713 9324 0
-1713 837 0
-9324 -837 1713 0
-1714 9324 0
-1714 846 0
-9324 -846 1714 0
-1715 9324 0
-1715 854 0
-9324 -854 1715 0
-1716 9324 0
-1716 861 0
-9324 -861 1716 0
-1717 9324 0
-1717 867 0
-9324 -867 1717 0
-1718 9324 0
-1718 872 0
-9324 -872 1718 0
-1719 9324 0
-1719 876 0
-9324 -876 1719 0
-1720 9324 0
-1720 879 0
-9324 -879 1720 0
-1721 9324 0
-1721 881 0
-9324 -881 1721 0
-1722 9324 0
-1722 882 0
-9324 -882 1722 0
-1723 9325 0
-1723 673 0
-9325 -673 1723 0
-1724 9325 0
-1724 674 0
-9325 -674 1724 0
-1725 9325 0
-1725 675 0
-9325 -675 1725 0
-1726 9325 0
-1726 676 0
-9325 -676 1726 0
-1727 9325 0
-1727 677 0
-9325 -677 1727 0
-1728 9325 0
-1728 678 0
-9325 -678 1728 0
-1729 9325 0
-1729 679 0
-9325 -679 1729 0
-1730 9325 0
-1730 680 0
-9325 -680 1730 0
-1731 9325 0
-1731 681 0
-9325 -681 1731 0
-1732 9325 0
-1732 682 0
-9325 -682 1732 0
-1733 9325 0
-1733 683 0
-9325 -683 1733 0
-1734 9325 0
-1734 684 0
-9325 -684 1734 0
-1735 9325 0
-1735 685 0
-9325 -685 1735 0
-1736 9325 0
-1736 686 0
-9325 -686 1736 0
-1737 9325 0
-1737 687 0
-9325 -687 1737 0
-1738 9325 0
-1738 688 0
-9325 -688 1738 0
-1739 9325 0
-1739 689 0
-9325 -689 1739 0
-1740 9325 0
-1740 690 0
-9325 -690 1740 0
-1741 9325 0
-1741 691 0
-9325 -691 1741 0
-1742 9325 0
-1742 692 0
-9325 -692 1742 0
-1743 9326 0
-1743 673 0
-9326 -673 1743 0
-1744 9326 0
-1744 693 0
-9326 -693 1744 0
-1745 9326 0
-1745 694 0
-9326 -694 1745 0
-1746 9326 0
-1746 695 0
-9326 -695 1746 0
-1747 9326 0
-1747 696 0
-9326 -696 1747 0
-1748 9326 0
-1748 697 0
-9326 -697 1748 0
-1749 9326 0
-1749 698 0
-9326 -698 1749 0
-1750 9326 0
-1750 699 0
-9326 -699 1750 0
-1751 9326 0
-1751 700 0
-9326 -700 1751 0
-1752 9326 0
-1752 701 0
-9326 -701 1752 0
-1753 9326 0
-1753 702 0
-9326 -702 1753 0
-1754 9326 0
-1754 703 0
-9326 -703 1754 0
-1755 9326 0
-1755 704 0
-9326 -704 1755 0
-1756 9326 0
-1756 705 0
-9326 -705 1756 0
-1757 9326 0
-1757 706 0
-9326 -706 1757 0
-1758 9326 0
-1758 707 0
-9326 -707 1758 0
-1759 9326 0
-1759 708 0
-9326 -708 1759 0
-1760 9326 0
-1760 709 0
-9326 -709 1760 0
-1761 9326 0
-1761 710 0
-9326 -710 1761 0
-1762 9326 0
-1762 711 0
-9326 -711 1762 0
-1763 9327 0
-1763 674 0
-9327 -674 1763 0
-1764 9327 0
-1764 693 0
-9327 -693 1764 0
-1765 9327 0
-1765 712 0
-9327 -712 1765 0
-1766 9327 0
-1766 713 0
-9327 -713 1766 0
-1767 9327 0
-1767 714 0
-9327 -714 1767 0
-1768 9327 0
-1768 715 0
-9327 -715 1768 0
-1769 9327 0
-1769 716 0
-9327 -716 1769 0
-1770 9327 0
-1770 717 0
-9327 -717 1770 0
-1771 9327 0
-1771 718 0
-9327 -718 1771 0
-1772 9327 0
-1772 719 0
-9327 -719 1772 0
-1773 9327 0
-1773 720 0
-9327 -720 1773 0
-1774 9327 0
-1774 721 0
-9327 -721 1774 0
-1775 9327 0
-1775 722 0
-9327 -722 1775 0
-1776 9327 0
-1776 723 0
-9327 -723 1776 0
-1777 9327 0
-1777 724 0
-9327 -724 1777 0
-1778 9327 0
-1778 725 0
-9327 -725 1778 0
-1779 9327 0
-1779 726 0
-9327 -726 1779 0
-1780 9327 0
-1780 727 0
-9327 -727 1780 0
-1781 9327 0
-1781 728 0
-9327 -728 1781 0
-1782 9327 0
-1782 729 0
-9327 -729 1782 0
-1783 9328 0
-1783 675 0
-9328 -675 1783 0
-1784 9328 0
-1784 694 0
-9328 -694 1784 0
-1785 9328 0
-1785 712 0
-9328 -712 1785 0
-1786 9328 0
-1786 730 0
-9328 -730 1786 0
-1787 9328 0
-1787 731 0
-9328 -731 1787 0
-1788 9328 0
-1788 732 0
-9328 -732 1788 0
-1789 9328 0
-1789 733 0
-9328 -733 1789 0
-1790 9328 0
-1790 734 0
-9328 -734 1790 0
-1791 9328 0
-1791 735 0
-9328 -735 1791 0
-1792 9328 0
-1792 736 0
-9328 -736 1792 0
-1793 9328 0
-1793 737 0
-9328 -737 1793 0
-1794 9328 0
-1794 738 0
-9328 -738 1794 0
-1795 9328 0
-1795 739 0
-9328 -739 1795 0
-1796 9328 0
-1796 740 0
-9328 -740 1796 0
-1797 9328 0
-1797 741 0
-9328 -741 1797 0
-1798 9328 0
-1798 742 0
-9328 -742 1798 0
-1799 9328 0
-1799 743 0
-9328 -743 1799 0
-1800 9328 0
-1800 744 0
-9328 -744 1800 0
-1801 9328 0
-1801 745 0
-9328 -745 1801 0
-1802 9328 0
-1802 746 0
-9328 -746 1802 0
-1803 9329 0
-1803 676 0
-9329 -676 1803 0
-1804 9329 0
-1804 695 0
-9329 -695 1804 0
-1805 9329 0
-1805 713 0
-9329 -713 1805 0
-1806 9329 0
-1806 730 0
-9329 -730 1806 0
-1807 9329 0
-1807 747 0
-9329 -747 1807 0
-1808 9329 0
-1808 748 0
-9329 -748 1808 0
-1809 9329 0
-1809 749 0
-9329 -749 1809 0
-1810 9329 0
-1810 750 0
-9329 -750 1810 0
-1811 9329 0
-1811 751 0
-9329 -751 1811 0
-1812 9329 0
-1812 752 0
-9329 -752 1812 0
-1813 9329 0
-1813 753 0
-9329 -753 1813 0
-1814 9329 0
-1814 754 0
-9329 -754 1814 0
-1815 9329 0
-1815 755 0
-9329 -755 1815 0
-1816 9329 0
-1816 756 0
-9329 -756 1816 0
-1817 9329 0
-1817 757 0
-9329 -757 1817 0
-1818 9329 0
-1818 758 0
-9329 -758 1818 0
-1819 9329 0
-1819 759 0
-9329 -759 1819 0
-1820 9329 0
-1820 760 0
-9329 -760 1820 0
-1821 9329 0
-1821 761 0
-9329 -761 1821 0
-1822 9329 0
-1822 762 0
-9329 -762 1822 0
-1823 9330 0
-1823 677 0
-9330 -677 1823 0
-1824 9330 0
-1824 696 0
-9330 -696 1824 0
-1825 9330 0
-1825 714 0
-9330 -714 1825 0
-1826 9330 0
-1826 731 0
-9330 -731 1826 0
-1827 9330 0
-1827 747 0
-9330 -747 1827 0
-1828 9330 0
-1828 763 0
-9330 -763 1828 0
-1829 9330 0
-1829 764 0
-9330 -764 1829 0
-1830 9330 0
-1830 765 0
-9330 -765 1830 0
-1831 9330 0
-1831 766 0
-9330 -766 1831 0
-1832 9330 0
-1832 767 0
-9330 -767 1832 0
-1833 9330 0
-1833 768 0
-9330 -768 1833 0
-1834 9330 0
-1834 769 0
-9330 -769 1834 0
-1835 9330 0
-1835 770 0
-9330 -770 1835 0
-1836 9330 0
-1836 771 0
-9330 -771 1836 0
-1837 9330 0
-1837 772 0
-9330 -772 1837 0
-1838 9330 0
-1838 773 0
-9330 -773 1838 0
-1839 9330 0
-1839 774 0
-9330 -774 1839 0
-1840 9330 0
-1840 775 0
-9330 -775 1840 0
-1841 9330 0
-1841 776 0
-9330 -776 1841 0
-1842 9330 0
-1842 777 0
-9330 -777 1842 0
-1843 9331 0
-1843 678 0
-9331 -678 1843 0
-1844 9331 0
-1844 697 0
-9331 -697 1844 0
-1845 9331 0
-1845 715 0
-9331 -715 1845 0
-1846 9331 0
-1846 732 0
-9331 -732 1846 0
-1847 9331 0
-1847 748 0
-9331 -748 1847 0
-1848 9331 0
-1848 763 0
-9331 -763 1848 0
-1849 9331 0
-1849 778 0
-9331 -778 1849 0
-1850 9331 0
-1850 779 0
-9331 -779 1850 0
-1851 9331 0
-1851 780 0
-9331 -780 1851 0
-1852 9331 0
-1852 781 0
-9331 -781 1852 0
-1853 9331 0
-1853 782 0
-9331 -782 1853 0
-1854 9331 0
-1854 783 0
-9331 -783 1854 0
-1855 9331 0
-1855 784 0
-9331 -784 1855 0
-1856 9331 0
-1856 785 0
-9331 -785 1856 0
-1857 9331 0
-1857 786 0
-9331 -786 1857 0
-1858 9331 0
-1858 787 0
-9331 -787 1858 0
-1859 9331 0
-1859 788 0
-9331 -788 1859 0
-1860 9331 0
-1860 789 0
-9331 -789 1860 0
-1861 9331 0
-1861 790 0
-9331 -790 1861 0
-1862 9331 0
-1862 791 0
-9331 -791 1862 0
-1863 9332 0
-1863 679 0
-9332 -679 1863 0
-1864 9332 0
-1864 698 0
-9332 -698 1864 0
-1865 9332 0
-1865 716 0
-9332 -716 1865 0
-1866 9332 0
-1866 733 0
-9332 -733 1866 0
-1867 9332 0
-1867 749 0
-9332 -749 1867 0
-1868 9332 0
-1868 764 0
-9332 -764 1868 0
-1869 9332 0
-1869 778 0
-9332 -778 1869 0
-1870 9332 0
-1870 792 0
-9332 -792 1870 0
-1871 9332 0
-1871 793 0
-9332 -793 1871 0
-1872 9332 0
-1872 794 0
-9332 -794 1872 0
-1873 9332 0
-1873 795 0
-9332 -795 1873 0
-1874 9332 0
-1874 796 0
-9332 -796 1874 0
-1875 9332 0
-1875 797 0
-9332 -797 1875 0
-1876 9332 0
-1876 798 0
-9332 -798 1876 0
-1877 9332 0
-1877 799 0
-9332 -799 1877 0
-1878 9332 0
-1878 800 0
-9332 -800 1878 0
-1879 9332 0
-1879 801 0
-9332 -801 1879 0
-1880 9332 0
-1880 802 0
-9332 -802 1880 0
-1881 9332 0
-1881 803 0
-9332 -803 1881 0
-1882 9332 0
-1882 804 0
-9332 -804 1882 0
-1883 9333 0
-1883 680 0
-9333 -680 1883 0
-1884 9333 0
-1884 699 0
-9333 -699 1884 0
-1885 9333 0
-1885 717 0
-9333 -717 1885 0
-1886 9333 0
-1886 734 0
-9333 -734 1886 0
-1887 9333 0
-1887 750 0
-9333 -750 1887 0
-1888 9333 0
-1888 765 0
-9333 -765 1888 0
-1889 9333 0
-1889 779 0
-9333 -779 1889 0
-1890 9333 0
-1890 792 0
-9333 -792 1890 0
-1891 9333 0
-1891 805 0
-9333 -805 1891 0
-1892 9333 0
-1892 806 0
-9333 -806 1892 0
-1893 9333 0
-1893 807 0
-9333 -807 1893 0
-1894 9333 0
-1894 808 0
-9333 -808 1894 0
-1895 9333 0
-1895 809 0
-9333 -809 1895 0
-1896 9333 0
-1896 810 0
-9333 -810 1896 0
-1897 9333 0
-1897 811 0
-9333 -811 1897 0
-1898 9333 0
-1898 812 0
-9333 -812 1898 0
-1899 9333 0
-1899 813 0
-9333 -813 1899 0
-1900 9333 0
-1900 814 0
-9333 -814 1900 0
-1901 9333 0
-1901 815 0
-9333 -815 1901 0
-1902 9333 0
-1902 816 0
-9333 -816 1902 0
-1903 9334 0
-1903 681 0
-9334 -681 1903 0
-1904 9334 0
-1904 700 0
-9334 -700 1904 0
-1905 9334 0
-1905 718 0
-9334 -718 1905 0
-1906 9334 0
-1906 735 0
-9334 -735 1906 0
-1907 9334 0
-1907 751 0
-9334 -751 1907 0
-1908 9334 0
-1908 766 0
-9334 -766 1908 0
-1909 9334 0
-1909 780 0
-9334 -780 1909 0
-1910 9334 0
-1910 793 0
-9334 -793 1910 0
-1911 9334 0
-1911 805 0
-9334 -805 1911 0
-1912 9334 0
-1912 817 0
-9334 -817 1912 0
-1913 9334 0
-1913 818 0
-9334 -818 1913 0
-1914 9334 0
-1914 819 0
-9334 -819 1914 0
-1915 9334 0
-1915 820 0
-9334 -820 1915 0
-1916 9334 0
-1916 821 0
-9334 -821 1916 0
-1917 9334 0
-1917 822 0
-9334 -822 1917 0
-1918 9334 0
-1918 823 0
-9334 -823 1918 0
-1919 9334 0
-1919 824 0
-9334 -824 1919 0
-1920 9334 0
-1920 825 0
-9334 -825 1920 0
-1921 9334 0
-1921 826 0
-9334 -826 1921 0
-1922 9334 0
-1922 827 0
-9334 -827 1922 0
-1923 9335 0
-1923 682 0
-9335 -682 1923 0
-1924 9335 0
-1924 701 0
-9335 -701 1924 0
-1925 9335 0
-1925 719 0
-9335 -719 1925 0
-1926 9335 0
-1926 736 0
-9335 -736 1926 0
-1927 9335 0
-1927 752 0
-9335 -752 1927 0
-1928 9335 0
-1928 767 0
-9335 -767 1928 0
-1929 9335 0
-1929 781 0
-9335 -781 1929 0
-1930 9335 0
-1930 794 0
-9335 -794 1930 0
-1931 9335 0
-1931 806 0
-9335 -806 1931 0
-1932 9335 0
-1932 817 0
-9335 -817 1932 0
-1933 9335 0
-1933 828 0
-9335 -828 1933 0
-1934 9335 0
-1934 829 0
-9335 -829 1934 0
-1935 9335 0
-1935 830 0
-9335 -830 1935 0
-1936 9335 0
-1936 831 0
-9335 -831 1936 0
-1937 9335 0
-1937 832 0
-9335 -832 1937 0
-1938 9335 0
-1938 833 0
-9335 -833 1938 0
-1939 9335 0
-1939 834 0
-9335 -834 1939 0
-1940 9335 0
-1940 835 0
-9335 -835 1940 0
-1941 9335 0
-1941 836 0
-9335 -836 1941 0
-1942 9335 0
-1942 837 0
-9335 -837 1942 0
-1943 9336 0
-1943 683 0
-9336 -683 1943 0
-1944 9336 0
-1944 702 0
-9336 -702 1944 0
-1945 9336 0
-1945 720 0
-9336 -720 1945 0
-1946 9336 0
-1946 737 0
-9336 -737 1946 0
-1947 9336 0
-1947 753 0
-9336 -753 1947 0
-1948 9336 0
-1948 768 0
-9336 -768 1948 0
-1949 9336 0
-1949 782 0
-9336 -782 1949 0
-1950 9336 0
-1950 795 0
-9336 -795 1950 0
-1951 9336 0
-1951 807 0
-9336 -807 1951 0
-1952 9336 0
-1952 818 0
-9336 -818 1952 0
-1953 9336 0
-1953 828 0
-9336 -828 1953 0
-1954 9336 0
-1954 838 0
-9336 -838 1954 0
-1955 9336 0
-1955 839 0
-9336 -839 1955 0
-1956 9336 0
-1956 840 0
-9336 -840 1956 0
-1957 9336 0
-1957 841 0
-9336 -841 1957 0
-1958 9336 0
-1958 842 0
-9336 -842 1958 0
-1959 9336 0
-1959 843 0
-9336 -843 1959 0
-1960 9336 0
-1960 844 0
-9336 -844 1960 0
-1961 9336 0
-1961 845 0
-9336 -845 1961 0
-1962 9336 0
-1962 846 0
-9336 -846 1962 0
-1963 9337 0
-1963 684 0
-9337 -684 1963 0
-1964 9337 0
-1964 703 0
-9337 -703 1964 0
-1965 9337 0
-1965 721 0
-9337 -721 1965 0
-1966 9337 0
-1966 738 0
-9337 -738 1966 0
-1967 9337 0
-1967 754 0
-9337 -754 1967 0
-1968 9337 0
-1968 769 0
-9337 -769 1968 0
-1969 9337 0
-1969 783 0
-9337 -783 1969 0
-1970 9337 0
-1970 796 0
-9337 -796 1970 0
-1971 9337 0
-1971 808 0
-9337 -808 1971 0
-1972 9337 0
-1972 819 0
-9337 -819 1972 0
-1973 9337 0
-1973 829 0
-9337 -829 1973 0
-1974 9337 0
-1974 838 0
-9337 -838 1974 0
-1975 9337 0
-1975 847 0
-9337 -847 1975 0
-1976 9337 0
-1976 848 0
-9337 -848 1976 0
-1977 9337 0
-1977 849 0
-9337 -849 1977 0
-1978 9337 0
-1978 850 0
-9337 -850 1978 0
-1979 9337 0
-1979 851 0
-9337 -851 1979 0
-1980 9337 0
-1980 852 0
-9337 -852 1980 0
-1981 9337 0
-1981 853 0
-9337 -853 1981 0
-1982 9337 0
-1982 854 0
-9337 -854 1982 0
-1983 9338 0
-1983 685 0
-9338 -685 1983 0
-1984 9338 0
-1984 704 0
-9338 -704 1984 0
-1985 9338 0
-1985 722 0
-9338 -722 1985 0
-1986 9338 0
-1986 739 0
-9338 -739 1986 0
-1987 9338 0
-1987 755 0
-9338 -755 1987 0
-1988 9338 0
-1988 770 0
-9338 -770 1988 0
-1989 9338 0
-1989 784 0
-9338 -784 1989 0
-1990 9338 0
-1990 797 0
-9338 -797 1990 0
-1991 9338 0
-1991 809 0
-9338 -809 1991 0
-1992 9338 0
-1992 820 0
-9338 -820 1992 0
-1993 9338 0
-1993 830 0
-9338 -830 1993 0
-1994 9338 0
-1994 839 0
-9338 -839 1994 0
-1995 9338 0
-1995 847 0
-9338 -847 1995 0
-1996 9338 0
-1996 855 0
-9338 -855 1996 0
-1997 9338 0
-1997 856 0
-9338 -856 1997 0
-1998 9338 0
-1998 857 0
-9338 -857 1998 0
-1999 9338 0
-1999 858 0
-9338 -858 1999 0
-2000 9338 0
-2000 859 0
-9338 -859 2000 0
-2001 9338 0
-2001 860 0
-9338 -860 2001 0
-2002 9338 0
-2002 861 0
-9338 -861 2002 0
-2003 9339 0
-2003 686 0
-9339 -686 2003 0
-2004 9339 0
-2004 705 0
-9339 -705 2004 0
-2005 9339 0
-2005 723 0
-9339 -723 2005 0
-2006 9339 0
-2006 740 0
-9339 -740 2006 0
-2007 9339 0
-2007 756 0
-9339 -756 2007 0
-2008 9339 0
-2008 771 0
-9339 -771 2008 0
-2009 9339 0
-2009 785 0
-9339 -785 2009 0
-2010 9339 0
-2010 798 0
-9339 -798 2010 0
-2011 9339 0
-2011 810 0
-9339 -810 2011 0
-2012 9339 0
-2012 821 0
-9339 -821 2012 0
-2013 9339 0
-2013 831 0
-9339 -831 2013 0
-2014 9339 0
-2014 840 0
-9339 -840 2014 0
-2015 9339 0
-2015 848 0
-9339 -848 2015 0
-2016 9339 0
-2016 855 0
-9339 -855 2016 0
-2017 9339 0
-2017 862 0
-9339 -862 2017 0
-2018 9339 0
-2018 863 0
-9339 -863 2018 0
-2019 9339 0
-2019 864 0
-9339 -864 2019 0
-2020 9339 0
-2020 865 0
-9339 -865 2020 0
-2021 9339 0
-2021 866 0
-9339 -866 2021 0
-2022 9339 0
-2022 867 0
-9339 -867 2022 0
-2023 9340 0
-2023 687 0
-9340 -687 2023 0
-2024 9340 0
-2024 706 0
-9340 -706 2024 0
-2025 9340 0
-2025 724 0
-9340 -724 2025 0
-2026 9340 0
-2026 741 0
-9340 -741 2026 0
-2027 9340 0
-2027 757 0
-9340 -757 2027 0
-2028 9340 0
-2028 772 0
-9340 -772 2028 0
-2029 9340 0
-2029 786 0
-9340 -786 2029 0
-2030 9340 0
-2030 799 0
-9340 -799 2030 0
-2031 9340 0
-2031 811 0
-9340 -811 2031 0
-2032 9340 0
-2032 822 0
-9340 -822 2032 0
-2033 9340 0
-2033 832 0
-9340 -832 2033 0
-2034 9340 0
-2034 841 0
-9340 -841 2034 0
-2035 9340 0
-2035 849 0
-9340 -849 2035 0
-2036 9340 0
-2036 856 0
-9340 -856 2036 0
-2037 9340 0
-2037 862 0
-9340 -862 2037 0
-2038 9340 0
-2038 868 0
-9340 -868 2038 0
-2039 9340 0
-2039 869 0
-9340 -869 2039 0
-2040 9340 0
-2040 870 0
-9340 -870 2040 0
-2041 9340 0
-2041 871 0
-9340 -871 2041 0
-2042 9340 0
-2042 872 0
-9340 -872 2042 0
-2043 9341 0
-2043 688 0
-9341 -688 2043 0
-2044 9341 0
-2044 707 0
-9341 -707 2044 0
-2045 9341 0
-2045 725 0
-9341 -725 2045 0
-2046 9341 0
-2046 742 0
-9341 -742 2046 0
-2047 9341 0
-2047 758 0
-9341 -758 2047 0
-2048 9341 0
-2048 773 0
-9341 -773 2048 0
-2049 9341 0
-2049 787 0
-9341 -787 2049 0
-2050 9341 0
-2050 800 0
-9341 -800 2050 0
-2051 9341 0
-2051 812 0
-9341 -812 2051 0
-2052 9341 0
-2052 823 0
-9341 -823 2052 0
-2053 9341 0
-2053 833 0
-9341 -833 2053 0
-2054 9341 0
-2054 842 0
-9341 -842 2054 0
-2055 9341 0
-2055 850 0
-9341 -850 2055 0
-2056 9341 0
-2056 857 0
-9341 -857 2056 0
-2057 9341 0
-2057 863 0
-9341 -863 2057 0
-2058 9341 0
-2058 868 0
-9341 -868 2058 0
-2059 9341 0
-2059 873 0
-9341 -873 2059 0
-2060 9341 0
-2060 874 0
-9341 -874 2060 0
-2061 9341 0
-2061 875 0
-9341 -875 2061 0
-2062 9341 0
-2062 876 0
-9341 -876 2062 0
-2063 9342 0
-2063 689 0
-9342 -689 2063 0
-2064 9342 0
-2064 708 0
-9342 -708 2064 0
-2065 9342 0
-2065 726 0
-9342 -726 2065 0
-2066 9342 0
-2066 743 0
-9342 -743 2066 0
-2067 9342 0
-2067 759 0
-9342 -759 2067 0
-2068 9342 0
-2068 774 0
-9342 -774 2068 0
-2069 9342 0
-2069 788 0
-9342 -788 2069 0
-2070 9342 0
-2070 801 0
-9342 -801 2070 0
-2071 9342 0
-2071 813 0
-9342 -813 2071 0
-2072 9342 0
-2072 824 0
-9342 -824 2072 0
-2073 9342 0
-2073 834 0
-9342 -834 2073 0
-2074 9342 0
-2074 843 0
-9342 -843 2074 0
-2075 9342 0
-2075 851 0
-9342 -851 2075 0
-2076 9342 0
-2076 858 0
-9342 -858 2076 0
-2077 9342 0
-2077 864 0
-9342 -864 2077 0
-2078 9342 0
-2078 869 0
-9342 -869 2078 0
-2079 9342 0
-2079 873 0
-9342 -873 2079 0
-2080 9342 0
-2080 877 0
-9342 -877 2080 0
-2081 9342 0
-2081 878 0
-9342 -878 2081 0
-2082 9342 0
-2082 879 0
-9342 -879 2082 0
-2083 9343 0
-2083 690 0
-9343 -690 2083 0
-2084 9343 0
-2084 709 0
-9343 -709 2084 0
-2085 9343 0
-2085 727 0
-9343 -727 2085 0
-2086 9343 0
-2086 744 0
-9343 -744 2086 0
-2087 9343 0
-2087 760 0
-9343 -760 2087 0
-2088 9343 0
-2088 775 0
-9343 -775 2088 0
-2089 9343 0
-2089 789 0
-9343 -789 2089 0
-2090 9343 0
-2090 802 0
-9343 -802 2090 0
-2091 9343 0
-2091 814 0
-9343 -814 2091 0
-2092 9343 0
-2092 825 0
-9343 -825 2092 0
-2093 9343 0
-2093 835 0
-9343 -835 2093 0
-2094 9343 0
-2094 844 0
-9343 -844 2094 0
-2095 9343 0
-2095 852 0
-9343 -852 2095 0
-2096 9343 0
-2096 859 0
-9343 -859 2096 0
-2097 9343 0
-2097 865 0
-9343 -865 2097 0
-2098 9343 0
-2098 870 0
-9343 -870 2098 0
-2099 9343 0
-2099 874 0
-9343 -874 2099 0
-2100 9343 0
-2100 877 0
-9343 -877 2100 0
-2101 9343 0
-2101 880 0
-9343 -880 2101 0
-2102 9343 0
-2102 881 0
-9343 -881 2102 0
-2103 9344 0
-2103 691 0
-9344 -691 2103 0
-2104 9344 0
-2104 710 0
-9344 -710 2104 0
-2105 9344 0
-2105 728 0
-9344 -728 2105 0
-2106 9344 0
-2106 745 0
-9344 -745 2106 0
-2107 9344 0
-2107 761 0
-9344 -761 2107 0
-2108 9344 0
-2108 776 0
-9344 -776 2108 0
-2109 9344 0
-2109 790 0
-9344 -790 2109 0
-2110 9344 0
-2110 803 0
-9344 -803 2110 0
-2111 9344 0
-2111 815 0
-9344 -815 2111 0
-2112 9344 0
-2112 826 0
-9344 -826 2112 0
-2113 9344 0
-2113 836 0
-9344 -836 2113 0
-2114 9344 0
-2114 845 0
-9344 -845 2114 0
-2115 9344 0
-2115 853 0
-9344 -853 2115 0
-2116 9344 0
-2116 860 0
-9344 -860 2116 0
-2117 9344 0
-2117 866 0
-9344 -866 2117 0
-2118 9344 0
-2118 871 0
-9344 -871 2118 0
-2119 9344 0
-2119 875 0
-9344 -875 2119 0
-2120 9344 0
-2120 878 0
-9344 -878 2120 0
-2121 9344 0
-2121 880 0
-9344 -880 2121 0
-2122 9344 0
-2122 882 0
-9344 -882 2122 0
-2123 9345 0
-2123 692 0
-9345 -692 2123 0
-2124 9345 0
-2124 711 0
-9345 -711 2124 0
-2125 9345 0
-2125 729 0
-9345 -729 2125 0
-2126 9345 0
-2126 746 0
-9345 -746 2126 0
-2127 9345 0
-2127 762 0
-9345 -762 2127 0
-2128 9345 0
-2128 777 0
-9345 -777 2128 0
-2129 9345 0
-2129 791 0
-9345 -791 2129 0
-2130 9345 0
-2130 804 0
-9345 -804 2130 0
-2131 9345 0
-2131 816 0
-9345 -816 2131 0
-2132 9345 0
-2132 827 0
-9345 -827 2132 0
-2133 9345 0
-2133 837 0
-9345 -837 2133 0
-2134 9345 0
-2134 846 0
-9345 -846 2134 0
-2135 9345 0
-2135 854 0
-9345 -854 2135 0
-2136 9345 0
-2136 861 0
-9345 -861 2136 0
-2137 9345 0
-2137 867 0
-9345 -867 2137 0
-2138 9345 0
-2138 872 0
-9345 -872 2138 0
-2139 9345 0
-2139 876 0
-9345 -876 2139 0
-2140 9345 0
-2140 879 0
-9345 -879 2140 0
-2141 9345 0
-2141 881 0
-9345 -881 2141 0
-2142 9345 0
-2142 882 0
-9345 -882 2142 0
-2143 9346 0
-2143 673 0
-9346 -673 2143 0
-2144 9346 0
-2144 674 0
-9346 -674 2144 0
-2145 9346 0
-2145 675 0
-9346 -675 2145 0
-2146 9346 0
-2146 676 0
-9346 -676 2146 0
-2147 9346 0
-2147 677 0
-9346 -677 2147 0
-2148 9346 0
-2148 678 0
-9346 -678 2148 0
-2149 9346 0
-2149 679 0
-9346 -679 2149 0
-2150 9346 0
-2150 680 0
-9346 -680 2150 0
-2151 9346 0
-2151 681 0
-9346 -681 2151 0
-2152 9346 0
-2152 682 0
-9346 -682 2152 0
-2153 9346 0
-2153 683 0
-9346 -683 2153 0
-2154 9346 0
-2154 684 0
-9346 -684 2154 0
-2155 9346 0
-2155 685 0
-9346 -685 2155 0
-2156 9346 0
-2156 686 0
-9346 -686 2156 0
-2157 9346 0
-2157 687 0
-9346 -687 2157 0
-2158 9346 0
-2158 688 0
-9346 -688 2158 0
-2159 9346 0
-2159 689 0
-9346 -689 2159 0
-2160 9346 0
-2160 690 0
-9346 -690 2160 0
-2161 9346 0
-2161 691 0
-9346 -691 2161 0
-2162 9346 0
-2162 692 0
-9346 -692 2162 0
-2163 9347 0
-2163 673 0
-9347 -673 2163 0
-2164 9347 0
-2164 693 0
-9347 -693 2164 0
-2165 9347 0
-2165 694 0
-9347 -694 2165 0
-2166 9347 0
-2166 695 0
-9347 -695 2166 0
-2167 9347 0
-2167 696 0
-9347 -696 2167 0
-2168 9347 0
-2168 697 0
-9347 -697 2168 0
-2169 9347 0
-2169 698 0
-9347 -698 2169 0
-2170 9347 0
-2170 699 0
-9347 -699 2170 0
-2171 9347 0
-2171 700 0
-9347 -700 2171 0
-2172 9347 0
-2172 701 0
-9347 -701 2172 0
-2173 9347 0
-2173 702 0
-9347 -702 2173 0
-2174 9347 0
-2174 703 0
-9347 -703 2174 0
-2175 9347 0
-2175 704 0
-9347 -704 2175 0
-2176 9347 0
-2176 705 0
-9347 -705 2176 0
-2177 9347 0
-2177 706 0
-9347 -706 2177 0
-2178 9347 0
-2178 707 0
-9347 -707 2178 0
-2179 9347 0
-2179 708 0
-9347 -708 2179 0
-2180 9347 0
-2180 709 0
-9347 -709 2180 0
-2181 9347 0
-2181 710 0
-9347 -710 2181 0
-2182 9347 0
-2182 711 0
-9347 -711 2182 0
-2183 9348 0
-2183 674 0
-9348 -674 2183 0
-2184 9348 0
-2184 693 0
-9348 -693 2184 0
-2185 9348 0
-2185 712 0
-9348 -712 2185 0
-2186 9348 0
-2186 713 0
-9348 -713 2186 0
-2187 9348 0
-2187 714 0
-9348 -714 2187 0
-2188 9348 0
-2188 715 0
-9348 -715 2188 0
-2189 9348 0
-2189 716 0
-9348 -716 2189 0
-2190 9348 0
-2190 717 0
-9348 -717 2190 0
-2191 9348 0
-2191 718 0
-9348 -718 2191 0
-2192 9348 0
-2192 719 0
-9348 -719 2192 0
-2193 9348 0
-2193 720 0
-9348 -720 2193 0
-2194 9348 0
-2194 721 0
-9348 -721 2194 0
-2195 9348 0
-2195 722 0
-9348 -722 2195 0
-2196 9348 0
-2196 723 0
-9348 -723 2196 0
-2197 9348 0
-2197 724 0
-9348 -724 2197 0
-2198 9348 0
-2198 725 0
-9348 -725 2198 0
-2199 9348 0
-2199 726 0
-9348 -726 2199 0
-2200 9348 0
-2200 727 0
-9348 -727 2200 0
-2201 9348 0
-2201 728 0
-9348 -728 2201 0
-2202 9348 0
-2202 729 0
-9348 -729 2202 0
-2203 9349 0
-2203 675 0
-9349 -675 2203 0
-2204 9349 0
-2204 694 0
-9349 -694 2204 0
-2205 9349 0
-2205 712 0
-9349 -712 2205 0
-2206 9349 0
-2206 730 0
-9349 -730 2206 0
-2207 9349 0
-2207 731 0
-9349 -731 2207 0
-2208 9349 0
-2208 732 0
-9349 -732 2208 0
-2209 9349 0
-2209 733 0
-9349 -733 2209 0
-2210 9349 0
-2210 734 0
-9349 -734 2210 0
-2211 9349 0
-2211 735 0
-9349 -735 2211 0
-2212 9349 0
-2212 736 0
-9349 -736 2212 0
-2213 9349 0
-2213 737 0
-9349 -737 2213 0
-2214 9349 0
-2214 738 0
-9349 -738 2214 0
-2215 9349 0
-2215 739 0
-9349 -739 2215 0
-2216 9349 0
-2216 740 0
-9349 -740 2216 0
-2217 9349 0
-2217 741 0
-9349 -741 2217 0
-2218 9349 0
-2218 742 0
-9349 -742 2218 0
-2219 9349 0
-2219 743 0
-9349 -743 2219 0
-2220 9349 0
-2220 744 0
-9349 -744 2220 0
-2221 9349 0
-2221 745 0
-9349 -745 2221 0
-2222 9349 0
-2222 746 0
-9349 -746 2222 0
-2223 9350 0
-2223 676 0
-9350 -676 2223 0
-2224 9350 0
-2224 695 0
-9350 -695 2224 0
-2225 9350 0
-2225 713 0
-9350 -713 2225 0
-2226 9350 0
-2226 730 0
-9350 -730 2226 0
-2227 9350 0
-2227 747 0
-9350 -747 2227 0
-2228 9350 0
-2228 748 0
-9350 -748 2228 0
-2229 9350 0
-2229 749 0
-9350 -749 2229 0
-2230 9350 0
-2230 750 0
-9350 -750 2230 0
-2231 9350 0
-2231 751 0
-9350 -751 2231 0
-2232 9350 0
-2232 752 0
-9350 -752 2232 0
-2233 9350 0
-2233 753 0
-9350 -753 2233 0
-2234 9350 0
-2234 754 0
-9350 -754 2234 0
-2235 9350 0
-2235 755 0
-9350 -755 2235 0
-2236 9350 0
-2236 756 0
-9350 -756 2236 0
-2237 9350 0
-2237 757 0
-9350 -757 2237 0
-2238 9350 0
-2238 758 0
-9350 -758 2238 0
-2239 9350 0
-2239 759 0
-9350 -759 2239 0
-2240 9350 0
-2240 760 0
-9350 -760 2240 0
-2241 9350 0
-2241 761 0
-9350 -761 2241 0
-2242 9350 0
-2242 762 0
-9350 -762 2242 0
-2243 9351 0
-2243 677 0
-9351 -677 2243 0
-2244 9351 0
-2244 696 0
-9351 -696 2244 0
-2245 9351 0
-2245 714 0
-9351 -714 2245 0
-2246 9351 0
-2246 731 0
-9351 -731 2246 0
-2247 9351 0
-2247 747 0
-9351 -747 2247 0
-2248 9351 0
-2248 763 0
-9351 -763 2248 0
-2249 9351 0
-2249 764 0
-9351 -764 2249 0
-2250 9351 0
-2250 765 0
-9351 -765 2250 0
-2251 9351 0
-2251 766 0
-9351 -766 2251 0
-2252 9351 0
-2252 767 0
-9351 -767 2252 0
-2253 9351 0
-2253 768 0
-9351 -768 2253 0
-2254 9351 0
-2254 769 0
-9351 -769 2254 0
-2255 9351 0
-2255 770 0
-9351 -770 2255 0
-2256 9351 0
-2256 771 0
-9351 -771 2256 0
-2257 9351 0
-2257 772 0
-9351 -772 2257 0
-2258 9351 0
-2258 773 0
-9351 -773 2258 0
-2259 9351 0
-2259 774 0
-9351 -774 2259 0
-2260 9351 0
-2260 775 0
-9351 -775 2260 0
-2261 9351 0
-2261 776 0
-9351 -776 2261 0
-2262 9351 0
-2262 777 0
-9351 -777 2262 0
-2263 9352 0
-2263 678 0
-9352 -678 2263 0
-2264 9352 0
-2264 697 0
-9352 -697 2264 0
-2265 9352 0
-2265 715 0
-9352 -715 2265 0
-2266 9352 0
-2266 732 0
-9352 -732 2266 0
-2267 9352 0
-2267 748 0
-9352 -748 2267 0
-2268 9352 0
-2268 763 0
-9352 -763 2268 0
-2269 9352 0
-2269 778 0
-9352 -778 2269 0
-2270 9352 0
-2270 779 0
-9352 -779 2270 0
-2271 9352 0
-2271 780 0
-9352 -780 2271 0
-2272 9352 0
-2272 781 0
-9352 -781 2272 0
-2273 9352 0
-2273 782 0
-9352 -782 2273 0
-2274 9352 0
-2274 783 0
-9352 -783 2274 0
-2275 9352 0
-2275 784 0
-9352 -784 2275 0
-2276 9352 0
-2276 785 0
-9352 -785 2276 0
-2277 9352 0
-2277 786 0
-9352 -786 2277 0
-2278 9352 0
-2278 787 0
-9352 -787 2278 0
-2279 9352 0
-2279 788 0
-9352 -788 2279 0
-2280 9352 0
-2280 789 0
-9352 -789 2280 0
-2281 9352 0
-2281 790 0
-9352 -790 2281 0
-2282 9352 0
-2282 791 0
-9352 -791 2282 0
-2283 9353 0
-2283 679 0
-9353 -679 2283 0
-2284 9353 0
-2284 698 0
-9353 -698 2284 0
-2285 9353 0
-2285 716 0
-9353 -716 2285 0
-2286 9353 0
-2286 733 0
-9353 -733 2286 0
-2287 9353 0
-2287 749 0
-9353 -749 2287 0
-2288 9353 0
-2288 764 0
-9353 -764 2288 0
-2289 9353 0
-2289 778 0
-9353 -778 2289 0
-2290 9353 0
-2290 792 0
-9353 -792 2290 0
-2291 9353 0
-2291 793 0
-9353 -793 2291 0
-2292 9353 0
-2292 794 0
-9353 -794 2292 0
-2293 9353 0
-2293 795 0
-9353 -795 2293 0
-2294 9353 0
-2294 796 0
-9353 -796 2294 0
-2295 9353 0
-2295 797 0
-9353 -797 2295 0
-2296 9353 0
-2296 798 0
-9353 -798 2296 0
-2297 9353 0
-2297 799 0
-9353 -799 2297 0
-2298 9353 0
-2298 800 0
-9353 -800 2298 0
-2299 9353 0
-2299 801 0
-9353 -801 2299 0
-2300 9353 0
-2300 802 0
-9353 -802 2300 0
-2301 9353 0
-2301 803 0
-9353 -803 2301 0
-2302 9353 0
-2302 804 0
-9353 -804 2302 0
-2303 9354 0
-2303 680 0
-9354 -680 2303 0
-2304 9354 0
-2304 699 0
-9354 -699 2304 0
-2305 9354 0
-2305 717 0
-9354 -717 2305 0
-2306 9354 0
-2306 734 0
-9354 -734 2306 0
-2307 9354 0
-2307 750 0
-9354 -750 2307 0
-2308 9354 0
-2308 765 0
-9354 -765 2308 0
-2309 9354 0
-2309 779 0
-9354 -779 2309 0
-2310 9354 0
-2310 792 0
-9354 -792 2310 0
-2311 9354 0
-2311 805 0
-9354 -805 2311 0
-2312 9354 0
-2312 806 0
-9354 -806 2312 0
-2313 9354 0
-2313 807 0
-9354 -807 2313 0
-2314 9354 0
-2314 808 0
-9354 -808 2314 0
-2315 9354 0
-2315 809 0
-9354 -809 2315 0
-2316 9354 0
-2316 810 0
-9354 -810 2316 0
-2317 9354 0
-2317 811 0
-9354 -811 2317 0
-2318 9354 0
-2318 812 0
-9354 -812 2318 0
-2319 9354 0
-2319 813 0
-9354 -813 2319 0
-2320 9354 0
-2320 814 0
-9354 -814 2320 0
-2321 9354 0
-2321 815 0
-9354 -815 2321 0
-2322 9354 0
-2322 816 0
-9354 -816 2322 0
-2323 9355 0
-2323 681 0
-9355 -681 2323 0
-2324 9355 0
-2324 700 0
-9355 -700 2324 0
-2325 9355 0
-2325 718 0
-9355 -718 2325 0
-2326 9355 0
-2326 735 0
-9355 -735 2326 0
-2327 9355 0
-2327 751 0
-9355 -751 2327 0
-2328 9355 0
-2328 766 0
-9355 -766 2328 0
-2329 9355 0
-2329 780 0
-9355 -780 2329 0
-2330 9355 0
-2330 793 0
-9355 -793 2330 0
-2331 9355 0
-2331 805 0
-9355 -805 2331 0
-2332 9355 0
-2332 817 0
-9355 -817 2332 0
-2333 9355 0
-2333 818 0
-9355 -818 2333 0
-2334 9355 0
-2334 819 0
-9355 -819 2334 0
-2335 9355 0
-2335 820 0
-9355 -820 2335 0
-2336 9355 0
-2336 821 0
-9355 -821 2336 0
-2337 9355 0
-2337 822 0
-9355 -822 2337 0
-2338 9355 0
-2338 823 0
-9355 -823 2338 0
-2339 9355 0
-2339 824 0
-9355 -824 2339 0
-2340 9355 0
-2340 825 0
-9355 -825 2340 0
-2341 9355 0
-2341 826 0
-9355 -826 2341 0
-2342 9355 0
-2342 827 0
-9355 -827 2342 0
-2343 9356 0
-2343 682 0
-9356 -682 2343 0
-2344 9356 0
-2344 701 0
-9356 -701 2344 0
-2345 9356 0
-2345 719 0
-9356 -719 2345 0
-2346 9356 0
-2346 736 0
-9356 -736 2346 0
-2347 9356 0
-2347 752 0
-9356 -752 2347 0
-2348 9356 0
-2348 767 0
-9356 -767 2348 0
-2349 9356 0
-2349 781 0
-9356 -781 2349 0
-2350 9356 0
-2350 794 0
-9356 -794 2350 0
-2351 9356 0
-2351 806 0
-9356 -806 2351 0
-2352 9356 0
-2352 817 0
-9356 -817 2352 0
-2353 9356 0
-2353 828 0
-9356 -828 2353 0
-2354 9356 0
-2354 829 0
-9356 -829 2354 0
-2355 9356 0
-2355 830 0
-9356 -830 2355 0
-2356 9356 0
-2356 831 0
-9356 -831 2356 0
-2357 9356 0
-2357 832 0
-9356 -832 2357 0
-2358 9356 0
-2358 833 0
-9356 -833 2358 0
-2359 9356 0
-2359 834 0
-9356 -834 2359 0
-2360 9356 0
-2360 835 0
-9356 -835 2360 0
-2361 9356 0
-2361 836 0
-9356 -836 2361 0
-2362 9356 0
-2362 837 0
-9356 -837 2362 0
-2363 9357 0
-2363 683 0
-9357 -683 2363 0
-2364 9357 0
-2364 702 0
-9357 -702 2364 0
-2365 9357 0
-2365 720 0
-9357 -720 2365 0
-2366 9357 0
-2366 737 0
-9357 -737 2366 0
-2367 9357 0
-2367 753 0
-9357 -753 2367 0
-2368 9357 0
-2368 768 0
-9357 -768 2368 0
-2369 9357 0
-2369 782 0
-9357 -782 2369 0
-2370 9357 0
-2370 795 0
-9357 -795 2370 0
-2371 9357 0
-2371 807 0
-9357 -807 2371 0
-2372 9357 0
-2372 818 0
-9357 -818 2372 0
-2373 9357 0
-2373 828 0
-9357 -828 2373 0
-2374 9357 0
-2374 838 0
-9357 -838 2374 0
-2375 9357 0
-2375 839 0
-9357 -839 2375 0
-2376 9357 0
-2376 840 0
-9357 -840 2376 0
-2377 9357 0
-2377 841 0
-9357 -841 2377 0
-2378 9357 0
-2378 842 0
-9357 -842 2378 0
-2379 9357 0
-2379 843 0
-9357 -843 2379 0
-2380 9357 0
-2380 844 0
-9357 -844 2380 0
-2381 9357 0
-2381 845 0
-9357 -845 2381 0
-2382 9357 0
-2382 846 0
-9357 -846 2382 0
-2383 9358 0
-2383 684 0
-9358 -684 2383 0
-2384 9358 0
-2384 703 0
-9358 -703 2384 0
-2385 9358 0
-2385 721 0
-9358 -721 2385 0
-2386 9358 0
-2386 738 0
-9358 -738 2386 0
-2387 9358 0
-2387 754 0
-9358 -754 2387 0
-2388 9358 0
-2388 769 0
-9358 -769 2388 0
-2389 9358 0
-2389 783 0
-9358 -783 2389 0
-2390 9358 0
-2390 796 0
-9358 -796 2390 0
-2391 9358 0
-2391 808 0
-9358 -808 2391 0
-2392 9358 0
-2392 819 0
-9358 -819 2392 0
-2393 9358 0
-2393 829 0
-9358 -829 2393 0
-2394 9358 0
-2394 838 0
-9358 -838 2394 0
-2395 9358 0
-2395 847 0
-9358 -847 2395 0
-2396 9358 0
-2396 848 0
-9358 -848 2396 0
-2397 9358 0
-2397 849 0
-9358 -849 2397 0
-2398 9358 0
-2398 850 0
-9358 -850 2398 0
-2399 9358 0
-2399 851 0
-9358 -851 2399 0
-2400 9358 0
-2400 852 0
-9358 -852 2400 0
-2401 9358 0
-2401 853 0
-9358 -853 2401 0
-2402 9358 0
-2402 854 0
-9358 -854 2402 0
-2403 9359 0
-2403 685 0
-9359 -685 2403 0
-2404 9359 0
-2404 704 0
-9359 -704 2404 0
-2405 9359 0
-2405 722 0
-9359 -722 2405 0
-2406 9359 0
-2406 739 0
-9359 -739 2406 0
-2407 9359 0
-2407 755 0
-9359 -755 2407 0
-2408 9359 0
-2408 770 0
-9359 -770 2408 0
-2409 9359 0
-2409 784 0
-9359 -784 2409 0
-2410 9359 0
-2410 797 0
-9359 -797 2410 0
-2411 9359 0
-2411 809 0
-9359 -809 2411 0
-2412 9359 0
-2412 820 0
-9359 -820 2412 0
-2413 9359 0
-2413 830 0
-9359 -830 2413 0
-2414 9359 0
-2414 839 0
-9359 -839 2414 0
-2415 9359 0
-2415 847 0
-9359 -847 2415 0
-2416 9359 0
-2416 855 0
-9359 -855 2416 0
-2417 9359 0
-2417 856 0
-9359 -856 2417 0
-2418 9359 0
-2418 857 0
-9359 -857 2418 0
-2419 9359 0
-2419 858 0
-9359 -858 2419 0
-2420 9359 0
-2420 859 0
-9359 -859 2420 0
-2421 9359 0
-2421 860 0
-9359 -860 2421 0
-2422 9359 0
-2422 861 0
-9359 -861 2422 0
-2423 9360 0
-2423 686 0
-9360 -686 2423 0
-2424 9360 0
-2424 705 0
-9360 -705 2424 0
-2425 9360 0
-2425 723 0
-9360 -723 2425 0
-2426 9360 0
-2426 740 0
-9360 -740 2426 0
-2427 9360 0
-2427 756 0
-9360 -756 2427 0
-2428 9360 0
-2428 771 0
-9360 -771 2428 0
-2429 9360 0
-2429 785 0
-9360 -785 2429 0
-2430 9360 0
-2430 798 0
-9360 -798 2430 0
-2431 9360 0
-2431 810 0
-9360 -810 2431 0
-2432 9360 0
-2432 821 0
-9360 -821 2432 0
-2433 9360 0
-2433 831 0
-9360 -831 2433 0
-2434 9360 0
-2434 840 0
-9360 -840 2434 0
-2435 9360 0
-2435 848 0
-9360 -848 2435 0
-2436 9360 0
-2436 855 0
-9360 -855 2436 0
-2437 9360 0
-2437 862 0
-9360 -862 2437 0
-2438 9360 0
-2438 863 0
-9360 -863 2438 0
-2439 9360 0
-2439 864 0
-9360 -864 2439 0
-2440 9360 0
-2440 865 0
-9360 -865 2440 0
-2441 9360 0
-2441 866 0
-9360 -866 2441 0
-2442 9360 0
-2442 867 0
-9360 -867 2442 0
-2443 9361 0
-2443 687 0
-9361 -687 2443 0
-2444 9361 0
-2444 706 0
-9361 -706 2444 0
-2445 9361 0
-2445 724 0
-9361 -724 2445 0
-2446 9361 0
-2446 741 0
-9361 -741 2446 0
-2447 9361 0
-2447 757 0
-9361 -757 2447 0
-2448 9361 0
-2448 772 0
-9361 -772 2448 0
-2449 9361 0
-2449 786 0
-9361 -786 2449 0
-2450 9361 0
-2450 799 0
-9361 -799 2450 0
-2451 9361 0
-2451 811 0
-9361 -811 2451 0
-2452 9361 0
-2452 822 0
-9361 -822 2452 0
-2453 9361 0
-2453 832 0
-9361 -832 2453 0
-2454 9361 0
-2454 841 0
-9361 -841 2454 0
-2455 9361 0
-2455 849 0
-9361 -849 2455 0
-2456 9361 0
-2456 856 0
-9361 -856 2456 0
-2457 9361 0
-2457 862 0
-9361 -862 2457 0
-2458 9361 0
-2458 868 0
-9361 -868 2458 0
-2459 9361 0
-2459 869 0
-9361 -869 2459 0
-2460 9361 0
-2460 870 0
-9361 -870 2460 0
-2461 9361 0
-2461 871 0
-9361 -871 2461 0
-2462 9361 0
-2462 872 0
-9361 -872 2462 0
-2463 9362 0
-2463 688 0
-9362 -688 2463 0
-2464 9362 0
-2464 707 0
-9362 -707 2464 0
-2465 9362 0
-2465 725 0
-9362 -725 2465 0
-2466 9362 0
-2466 742 0
-9362 -742 2466 0
-2467 9362 0
-2467 758 0
-9362 -758 2467 0
-2468 9362 0
-2468 773 0
-9362 -773 2468 0
-2469 9362 0
-2469 787 0
-9362 -787 2469 0
-2470 9362 0
-2470 800 0
-9362 -800 2470 0
-2471 9362 0
-2471 812 0
-9362 -812 2471 0
-2472 9362 0
-2472 823 0
-9362 -823 2472 0
-2473 9362 0
-2473 833 0
-9362 -833 2473 0
-2474 9362 0
-2474 842 0
-9362 -842 2474 0
-2475 9362 0
-2475 850 0
-9362 -850 2475 0
-2476 9362 0
-2476 857 0
-9362 -857 2476 0
-2477 9362 0
-2477 863 0
-9362 -863 2477 0
-2478 9362 0
-2478 868 0
-9362 -868 2478 0
-2479 9362 0
-2479 873 0
-9362 -873 2479 0
-2480 9362 0
-2480 874 0
-9362 -874 2480 0
-2481 9362 0
-2481 875 0
-9362 -875 2481 0
-2482 9362 0
-2482 876 0
-9362 -876 2482 0
-2483 9363 0
-2483 689 0
-9363 -689 2483 0
-2484 9363 0
-2484 708 0
-9363 -708 2484 0
-2485 9363 0
-2485 726 0
-9363 -726 2485 0
-2486 9363 0
-2486 743 0
-9363 -743 2486 0
-2487 9363 0
-2487 759 0
-9363 -759 2487 0
-2488 9363 0
-2488 774 0
-9363 -774 2488 0
-2489 9363 0
-2489 788 0
-9363 -788 2489 0
-2490 9363 0
-2490 801 0
-9363 -801 2490 0
-2491 9363 0
-2491 813 0
-9363 -813 2491 0
-2492 9363 0
-2492 824 0
-9363 -824 2492 0
-2493 9363 0
-2493 834 0
-9363 -834 2493 0
-2494 9363 0
-2494 843 0
-9363 -843 2494 0
-2495 9363 0
-2495 851 0
-9363 -851 2495 0
-2496 9363 0
-2496 858 0
-9363 -858 2496 0
-2497 9363 0
-2497 864 0
-9363 -864 2497 0
-2498 9363 0
-2498 869 0
-9363 -869 2498 0
-2499 9363 0
-2499 873 0
-9363 -873 2499 0
-2500 9363 0
-2500 877 0
-9363 -877 2500 0
-2501 9363 0
-2501 878 0
-9363 -878 2501 0
-2502 9363 0
-2502 879 0
-9363 -879 2502 0
-2503 9364 0
-2503 690 0
-9364 -690 2503 0
-2504 9364 0
-2504 709 0
-9364 -709 2504 0
-2505 9364 0
-2505 727 0
-9364 -727 2505 0
-2506 9364 0
-2506 744 0
-9364 -744 2506 0
-2507 9364 0
-2507 760 0
-9364 -760 2507 0
-2508 9364 0
-2508 775 0
-9364 -775 2508 0
-2509 9364 0
-2509 789 0
-9364 -789 2509 0
-2510 9364 0
-2510 802 0
-9364 -802 2510 0
-2511 9364 0
-2511 814 0
-9364 -814 2511 0
-2512 9364 0
-2512 825 0
-9364 -825 2512 0
-2513 9364 0
-2513 835 0
-9364 -835 2513 0
-2514 9364 0
-2514 844 0
-9364 -844 2514 0
-2515 9364 0
-2515 852 0
-9364 -852 2515 0
-2516 9364 0
-2516 859 0
-9364 -859 2516 0
-2517 9364 0
-2517 865 0
-9364 -865 2517 0
-2518 9364 0
-2518 870 0
-9364 -870 2518 0
-2519 9364 0
-2519 874 0
-9364 -874 2519 0
-2520 9364 0
-2520 877 0
-9364 -877 2520 0
-2521 9364 0
-2521 880 0
-9364 -880 2521 0
-2522 9364 0
-2522 881 0
-9364 -881 2522 0
-2523 9365 0
-2523 691 0
-9365 -691 2523 0
-2524 9365 0
-2524 710 0
-9365 -710 2524 0
-2525 9365 0
-2525 728 0
-9365 -728 2525 0
-2526 9365 0
-2526 745 0
-9365 -745 2526 0
-2527 9365 0
-2527 761 0
-9365 -761 2527 0
-2528 9365 0
-2528 776 0
-9365 -776 2528 0
-2529 9365 0
-2529 790 0
-9365 -790 2529 0
-2530 9365 0
-2530 803 0
-9365 -803 2530 0
-2531 9365 0
-2531 815 0
-9365 -815 2531 0
-2532 9365 0
-2532 826 0
-9365 -826 2532 0
-2533 9365 0
-2533 836 0
-9365 -836 2533 0
-2534 9365 0
-2534 845 0
-9365 -845 2534 0
-2535 9365 0
-2535 853 0
-9365 -853 2535 0
-2536 9365 0
-2536 860 0
-9365 -860 2536 0
-2537 9365 0
-2537 866 0
-9365 -866 2537 0
-2538 9365 0
-2538 871 0
-9365 -871 2538 0
-2539 9365 0
-2539 875 0
-9365 -875 2539 0
-2540 9365 0
-2540 878 0
-9365 -878 2540 0
-2541 9365 0
-2541 880 0
-9365 -880 2541 0
-2542 9365 0
-2542 882 0
-9365 -882 2542 0
-2543 9366 0
-2543 692 0
-9366 -692 2543 0
-2544 9366 0
-2544 711 0
-9366 -711 2544 0
-2545 9366 0
-2545 729 0
-9366 -729 2545 0
-2546 9366 0
-2546 746 0
-9366 -746 2546 0
-2547 9366 0
-2547 762 0
-9366 -762 2547 0
-2548 9366 0
-2548 777 0
-9366 -777 2548 0
-2549 9366 0
-2549 791 0
-9366 -791 2549 0
-2550 9366 0
-2550 804 0
-9366 -804 2550 0
-2551 9366 0
-2551 816 0
-9366 -816 2551 0
-2552 9366 0
-2552 827 0
-9366 -827 2552 0
-2553 9366 0
-2553 837 0
-9366 -837 2553 0
-2554 9366 0
-2554 846 0
-9366 -846 2554 0
-2555 9366 0
-2555 854 0
-9366 -854 2555 0
-2556 9366 0
-2556 861 0
-9366 -861 2556 0
-2557 9366 0
-2557 867 0
-9366 -867 2557 0
-2558 9366 0
-2558 872 0
-9366 -872 2558 0
-2559 9366 0
-2559 876 0
-9366 -876 2559 0
-2560 9366 0
-2560 879 0
-9366 -879 2560 0
-2561 9366 0
-2561 881 0
-9366 -881 2561 0
-2562 9366 0
-2562 882 0
-9366 -882 2562 0
-2563 9367 0
-2563 673 0
-9367 -673 2563 0
-2564 9367 0
-2564 674 0
-9367 -674 2564 0
-2565 9367 0
-2565 675 0
-9367 -675 2565 0
-2566 9367 0
-2566 676 0
-9367 -676 2566 0
-2567 9367 0
-2567 677 0
-9367 -677 2567 0
-2568 9367 0
-2568 678 0
-9367 -678 2568 0
-2569 9367 0
-2569 679 0
-9367 -679 2569 0
-2570 9367 0
-2570 680 0
-9367 -680 2570 0
-2571 9367 0
-2571 681 0
-9367 -681 2571 0
-2572 9367 0
-2572 682 0
-9367 -682 2572 0
-2573 9367 0
-2573 683 0
-9367 -683 2573 0
-2574 9367 0
-2574 684 0
-9367 -684 2574 0
-2575 9367 0
-2575 685 0
-9367 -685 2575 0
-2576 9367 0
-2576 686 0
-9367 -686 2576 0
-2577 9367 0
-2577 687 0
-9367 -687 2577 0
-2578 9367 0
-2578 688 0
-9367 -688 2578 0
-2579 9367 0
-2579 689 0
-9367 -689 2579 0
-2580 9367 0
-2580 690 0
-9367 -690 2580 0
-2581 9367 0
-2581 691 0
-9367 -691 2581 0
-2582 9367 0
-2582 692 0
-9367 -692 2582 0
-2583 9368 0
-2583 673 0
-9368 -673 2583 0
-2584 9368 0
-2584 693 0
-9368 -693 2584 0
-2585 9368 0
-2585 694 0
-9368 -694 2585 0
-2586 9368 0
-2586 695 0
-9368 -695 2586 0
-2587 9368 0
-2587 696 0
-9368 -696 2587 0
-2588 9368 0
-2588 697 0
-9368 -697 2588 0
-2589 9368 0
-2589 698 0
-9368 -698 2589 0
-2590 9368 0
-2590 699 0
-9368 -699 2590 0
-2591 9368 0
-2591 700 0
-9368 -700 2591 0
-2592 9368 0
-2592 701 0
-9368 -701 2592 0
-2593 9368 0
-2593 702 0
-9368 -702 2593 0
-2594 9368 0
-2594 703 0
-9368 -703 2594 0
-2595 9368 0
-2595 704 0
-9368 -704 2595 0
-2596 9368 0
-2596 705 0
-9368 -705 2596 0
-2597 9368 0
-2597 706 0
-9368 -706 2597 0
-2598 9368 0
-2598 707 0
-9368 -707 2598 0
-2599 9368 0
-2599 708 0
-9368 -708 2599 0
-2600 9368 0
-2600 709 0
-9368 -709 2600 0
-2601 9368 0
-2601 710 0
-9368 -710 2601 0
-2602 9368 0
-2602 711 0
-9368 -711 2602 0
-2603 9369 0
-2603 674 0
-9369 -674 2603 0
-2604 9369 0
-2604 693 0
-9369 -693 2604 0
-2605 9369 0
-2605 712 0
-9369 -712 2605 0
-2606 9369 0
-2606 713 0
-9369 -713 2606 0
-2607 9369 0
-2607 714 0
-9369 -714 2607 0
-2608 9369 0
-2608 715 0
-9369 -715 2608 0
-2609 9369 0
-2609 716 0
-9369 -716 2609 0
-2610 9369 0
-2610 717 0
-9369 -717 2610 0
-2611 9369 0
-2611 718 0
-9369 -718 2611 0
-2612 9369 0
-2612 719 0
-9369 -719 2612 0
-2613 9369 0
-2613 720 0
-9369 -720 2613 0
-2614 9369 0
-2614 721 0
-9369 -721 2614 0
-2615 9369 0
-2615 722 0
-9369 -722 2615 0
-2616 9369 0
-2616 723 0
-9369 -723 2616 0
-2617 9369 0
-2617 724 0
-9369 -724 2617 0
-2618 9369 0
-2618 725 0
-9369 -725 2618 0
-2619 9369 0
-2619 726 0
-9369 -726 2619 0
-2620 9369 0
-2620 727 0
-9369 -727 2620 0
-2621 9369 0
-2621 728 0
-9369 -728 2621 0
-2622 9369 0
-2622 729 0
-9369 -729 2622 0
-2623 9370 0
-2623 675 0
-9370 -675 2623 0
-2624 9370 0
-2624 694 0
-9370 -694 2624 0
-2625 9370 0
-2625 712 0
-9370 -712 2625 0
-2626 9370 0
-2626 730 0
-9370 -730 2626 0
-2627 9370 0
-2627 731 0
-9370 -731 2627 0
-2628 9370 0
-2628 732 0
-9370 -732 2628 0
-2629 9370 0
-2629 733 0
-9370 -733 2629 0
-2630 9370 0
-2630 734 0
-9370 -734 2630 0
-2631 9370 0
-2631 735 0
-9370 -735 2631 0
-2632 9370 0
-2632 736 0
-9370 -736 2632 0
-2633 9370 0
-2633 737 0
-9370 -737 2633 0
-2634 9370 0
-2634 738 0
-9370 -738 2634 0
-2635 9370 0
-2635 739 0
-9370 -739 2635 0
-2636 9370 0
-2636 740 0
-9370 -740 2636 0
-2637 9370 0
-2637 741 0
-9370 -741 2637 0
-2638 9370 0
-2638 742 0
-9370 -742 2638 0
-2639 9370 0
-2639 743 0
-9370 -743 2639 0
-2640 9370 0
-2640 744 0
-9370 -744 2640 0
-2641 9370 0
-2641 745 0
-9370 -745 2641 0
-2642 9370 0
-2642 746 0
-9370 -746 2642 0
-2643 9371 0
-2643 676 0
-9371 -676 2643 0
-2644 9371 0
-2644 695 0
-9371 -695 2644 0
-2645 9371 0
-2645 713 0
-9371 -713 2645 0
-2646 9371 0
-2646 730 0
-9371 -730 2646 0
-2647 9371 0
-2647 747 0
-9371 -747 2647 0
-2648 9371 0
-2648 748 0
-9371 -748 2648 0
-2649 9371 0
-2649 749 0
-9371 -749 2649 0
-2650 9371 0
-2650 750 0
-9371 -750 2650 0
-2651 9371 0
-2651 751 0
-9371 -751 2651 0
-2652 9371 0
-2652 752 0
-9371 -752 2652 0
-2653 9371 0
-2653 753 0
-9371 -753 2653 0
-2654 9371 0
-2654 754 0
-9371 -754 2654 0
-2655 9371 0
-2655 755 0
-9371 -755 2655 0
-2656 9371 0
-2656 756 0
-9371 -756 2656 0
-2657 9371 0
-2657 757 0
-9371 -757 2657 0
-2658 9371 0
-2658 758 0
-9371 -758 2658 0
-2659 9371 0
-2659 759 0
-9371 -759 2659 0
-2660 9371 0
-2660 760 0
-9371 -760 2660 0
-2661 9371 0
-2661 761 0
-9371 -761 2661 0
-2662 9371 0
-2662 762 0
-9371 -762 2662 0
-2663 9372 0
-2663 677 0
-9372 -677 2663 0
-2664 9372 0
-2664 696 0
-9372 -696 2664 0
-2665 9372 0
-2665 714 0
-9372 -714 2665 0
-2666 9372 0
-2666 731 0
-9372 -731 2666 0
-2667 9372 0
-2667 747 0
-9372 -747 2667 0
-2668 9372 0
-2668 763 0
-9372 -763 2668 0
-2669 9372 0
-2669 764 0
-9372 -764 2669 0
-2670 9372 0
-2670 765 0
-9372 -765 2670 0
-2671 9372 0
-2671 766 0
-9372 -766 2671 0
-2672 9372 0
-2672 767 0
-9372 -767 2672 0
-2673 9372 0
-2673 768 0
-9372 -768 2673 0
-2674 9372 0
-2674 769 0
-9372 -769 2674 0
-2675 9372 0
-2675 770 0
-9372 -770 2675 0
-2676 9372 0
-2676 771 0
-9372 -771 2676 0
-2677 9372 0
-2677 772 0
-9372 -772 2677 0
-2678 9372 0
-2678 773 0
-9372 -773 2678 0
-2679 9372 0
-2679 774 0
-9372 -774 2679 0
-2680 9372 0
-2680 775 0
-9372 -775 2680 0
-2681 9372 0
-2681 776 0
-9372 -776 2681 0
-2682 9372 0
-2682 777 0
-9372 -777 2682 0
-2683 9373 0
-2683 678 0
-9373 -678 2683 0
-2684 9373 0
-2684 697 0
-9373 -697 2684 0
-2685 9373 0
-2685 715 0
-9373 -715 2685 0
-2686 9373 0
-2686 732 0
-9373 -732 2686 0
-2687 9373 0
-2687 748 0
-9373 -748 2687 0
-2688 9373 0
-2688 763 0
-9373 -763 2688 0
-2689 9373 0
-2689 778 0
-9373 -778 2689 0
-2690 9373 0
-2690 779 0
-9373 -779 2690 0
-2691 9373 0
-2691 780 0
-9373 -780 2691 0
-2692 9373 0
-2692 781 0
-9373 -781 2692 0
-2693 9373 0
-2693 782 0
-9373 -782 2693 0
-2694 9373 0
-2694 783 0
-9373 -783 2694 0
-2695 9373 0
-2695 784 0
-9373 -784 2695 0
-2696 9373 0
-2696 785 0
-9373 -785 2696 0
-2697 9373 0
-2697 786 0
-9373 -786 2697 0
-2698 9373 0
-2698 787 0
-9373 -787 2698 0
-2699 9373 0
-2699 788 0
-9373 -788 2699 0
-2700 9373 0
-2700 789 0
-9373 -789 2700 0
-2701 9373 0
-2701 790 0
-9373 -790 2701 0
-2702 9373 0
-2702 791 0
-9373 -791 2702 0
-2703 9374 0
-2703 679 0
-9374 -679 2703 0
-2704 9374 0
-2704 698 0
-9374 -698 2704 0
-2705 9374 0
-2705 716 0
-9374 -716 2705 0
-2706 9374 0
-2706 733 0
-9374 -733 2706 0
-2707 9374 0
-2707 749 0
-9374 -749 2707 0
-2708 9374 0
-2708 764 0
-9374 -764 2708 0
-2709 9374 0
-2709 778 0
-9374 -778 2709 0
-2710 9374 0
-2710 792 0
-9374 -792 2710 0
-2711 9374 0
-2711 793 0
-9374 -793 2711 0
-2712 9374 0
-2712 794 0
-9374 -794 2712 0
-2713 9374 0
-2713 795 0
-9374 -795 2713 0
-2714 9374 0
-2714 796 0
-9374 -796 2714 0
-2715 9374 0
-2715 797 0
-9374 -797 2715 0
-2716 9374 0
-2716 798 0
-9374 -798 2716 0
-2717 9374 0
-2717 799 0
-9374 -799 2717 0
-2718 9374 0
-2718 800 0
-9374 -800 2718 0
-2719 9374 0
-2719 801 0
-9374 -801 2719 0
-2720 9374 0
-2720 802 0
-9374 -802 2720 0
-2721 9374 0
-2721 803 0
-9374 -803 2721 0
-2722 9374 0
-2722 804 0
-9374 -804 2722 0
-2723 9375 0
-2723 680 0
-9375 -680 2723 0
-2724 9375 0
-2724 699 0
-9375 -699 2724 0
-2725 9375 0
-2725 717 0
-9375 -717 2725 0
-2726 9375 0
-2726 734 0
-9375 -734 2726 0
-2727 9375 0
-2727 750 0
-9375 -750 2727 0
-2728 9375 0
-2728 765 0
-9375 -765 2728 0
-2729 9375 0
-2729 779 0
-9375 -779 2729 0
-2730 9375 0
-2730 792 0
-9375 -792 2730 0
-2731 9375 0
-2731 805 0
-9375 -805 2731 0
-2732 9375 0
-2732 806 0
-9375 -806 2732 0
-2733 9375 0
-2733 807 0
-9375 -807 2733 0
-2734 9375 0
-2734 808 0
-9375 -808 2734 0
-2735 9375 0
-2735 809 0
-9375 -809 2735 0
-2736 9375 0
-2736 810 0
-9375 -810 2736 0
-2737 9375 0
-2737 811 0
-9375 -811 2737 0
-2738 9375 0
-2738 812 0
-9375 -812 2738 0
-2739 9375 0
-2739 813 0
-9375 -813 2739 0
-2740 9375 0
-2740 814 0
-9375 -814 2740 0
-2741 9375 0
-2741 815 0
-9375 -815 2741 0
-2742 9375 0
-2742 816 0
-9375 -816 2742 0
-2743 9376 0
-2743 681 0
-9376 -681 2743 0
-2744 9376 0
-2744 700 0
-9376 -700 2744 0
-2745 9376 0
-2745 718 0
-9376 -718 2745 0
-2746 9376 0
-2746 735 0
-9376 -735 2746 0
-2747 9376 0
-2747 751 0
-9376 -751 2747 0
-2748 9376 0
-2748 766 0
-9376 -766 2748 0
-2749 9376 0
-2749 780 0
-9376 -780 2749 0
-2750 9376 0
-2750 793 0
-9376 -793 2750 0
-2751 9376 0
-2751 805 0
-9376 -805 2751 0
-2752 9376 0
-2752 817 0
-9376 -817 2752 0
-2753 9376 0
-2753 818 0
-9376 -818 2753 0
-2754 9376 0
-2754 819 0
-9376 -819 2754 0
-2755 9376 0
-2755 820 0
-9376 -820 2755 0
-2756 9376 0
-2756 821 0
-9376 -821 2756 0
-2757 9376 0
-2757 822 0
-9376 -822 2757 0
-2758 9376 0
-2758 823 0
-9376 -823 2758 0
-2759 9376 0
-2759 824 0
-9376 -824 2759 0
-2760 9376 0
-2760 825 0
-9376 -825 2760 0
-2761 9376 0
-2761 826 0
-9376 -826 2761 0
-2762 9376 0
-2762 827 0
-9376 -827 2762 0
-2763 9377 0
-2763 682 0
-9377 -682 2763 0
-2764 9377 0
-2764 701 0
-9377 -701 2764 0
-2765 9377 0
-2765 719 0
-9377 -719 2765 0
-2766 9377 0
-2766 736 0
-9377 -736 2766 0
-2767 9377 0
-2767 752 0
-9377 -752 2767 0
-2768 9377 0
-2768 767 0
-9377 -767 2768 0
-2769 9377 0
-2769 781 0
-9377 -781 2769 0
-2770 9377 0
-2770 794 0
-9377 -794 2770 0
-2771 9377 0
-2771 806 0
-9377 -806 2771 0
-2772 9377 0
-2772 817 0
-9377 -817 2772 0
-2773 9377 0
-2773 828 0
-9377 -828 2773 0
-2774 9377 0
-2774 829 0
-9377 -829 2774 0
-2775 9377 0
-2775 830 0
-9377 -830 2775 0
-2776 9377 0
-2776 831 0
-9377 -831 2776 0
-2777 9377 0
-2777 832 0
-9377 -832 2777 0
-2778 9377 0
-2778 833 0
-9377 -833 2778 0
-2779 9377 0
-2779 834 0
-9377 -834 2779 0
-2780 9377 0
-2780 835 0
-9377 -835 2780 0
-2781 9377 0
-2781 836 0
-9377 -836 2781 0
-2782 9377 0
-2782 837 0
-9377 -837 2782 0
-2783 9378 0
-2783 683 0
-9378 -683 2783 0
-2784 9378 0
-2784 702 0
-9378 -702 2784 0
-2785 9378 0
-2785 720 0
-9378 -720 2785 0
-2786 9378 0
-2786 737 0
-9378 -737 2786 0
-2787 9378 0
-2787 753 0
-9378 -753 2787 0
-2788 9378 0
-2788 768 0
-9378 -768 2788 0
-2789 9378 0
-2789 782 0
-9378 -782 2789 0
-2790 9378 0
-2790 795 0
-9378 -795 2790 0
-2791 9378 0
-2791 807 0
-9378 -807 2791 0
-2792 9378 0
-2792 818 0
-9378 -818 2792 0
-2793 9378 0
-2793 828 0
-9378 -828 2793 0
-2794 9378 0
-2794 838 0
-9378 -838 2794 0
-2795 9378 0
-2795 839 0
-9378 -839 2795 0
-2796 9378 0
-2796 840 0
-9378 -840 2796 0
-2797 9378 0
-2797 841 0
-9378 -841 2797 0
-2798 9378 0
-2798 842 0
-9378 -842 2798 0
-2799 9378 0
-2799 843 0
-9378 -843 2799 0
-2800 9378 0
-2800 844 0
-9378 -844 2800 0
-2801 9378 0
-2801 845 0
-9378 -845 2801 0
-2802 9378 0
-2802 846 0
-9378 -846 2802 0
-2803 9379 0
-2803 684 0
-9379 -684 2803 0
-2804 9379 0
-2804 703 0
-9379 -703 2804 0
-2805 9379 0
-2805 721 0
-9379 -721 2805 0
-2806 9379 0
-2806 738 0
-9379 -738 2806 0
-2807 9379 0
-2807 754 0
-9379 -754 2807 0
-2808 9379 0
-2808 769 0
-9379 -769 2808 0
-2809 9379 0
-2809 783 0
-9379 -783 2809 0
-2810 9379 0
-2810 796 0
-9379 -796 2810 0
-2811 9379 0
-2811 808 0
-9379 -808 2811 0
-2812 9379 0
-2812 819 0
-9379 -819 2812 0
-2813 9379 0
-2813 829 0
-9379 -829 2813 0
-2814 9379 0
-2814 838 0
-9379 -838 2814 0
-2815 9379 0
-2815 847 0
-9379 -847 2815 0
-2816 9379 0
-2816 848 0
-9379 -848 2816 0
-2817 9379 0
-2817 849 0
-9379 -849 2817 0
-2818 9379 0
-2818 850 0
-9379 -850 2818 0
-2819 9379 0
-2819 851 0
-9379 -851 2819 0
-2820 9379 0
-2820 852 0
-9379 -852 2820 0
-2821 9379 0
-2821 853 0
-9379 -853 2821 0
-2822 9379 0
-2822 854 0
-9379 -854 2822 0
-2823 9380 0
-2823 685 0
-9380 -685 2823 0
-2824 9380 0
-2824 704 0
-9380 -704 2824 0
-2825 9380 0
-2825 722 0
-9380 -722 2825 0
-2826 9380 0
-2826 739 0
-9380 -739 2826 0
-2827 9380 0
-2827 755 0
-9380 -755 2827 0
-2828 9380 0
-2828 770 0
-9380 -770 2828 0
-2829 9380 0
-2829 784 0
-9380 -784 2829 0
-2830 9380 0
-2830 797 0
-9380 -797 2830 0
-2831 9380 0
-2831 809 0
-9380 -809 2831 0
-2832 9380 0
-2832 820 0
-9380 -820 2832 0
-2833 9380 0
-2833 830 0
-9380 -830 2833 0
-2834 9380 0
-2834 839 0
-9380 -839 2834 0
-2835 9380 0
-2835 847 0
-9380 -847 2835 0
-2836 9380 0
-2836 855 0
-9380 -855 2836 0
-2837 9380 0
-2837 856 0
-9380 -856 2837 0
-2838 9380 0
-2838 857 0
-9380 -857 2838 0
-2839 9380 0
-2839 858 0
-9380 -858 2839 0
-2840 9380 0
-2840 859 0
-9380 -859 2840 0
-2841 9380 0
-2841 860 0
-9380 -860 2841 0
-2842 9380 0
-2842 861 0
-9380 -861 2842 0
-2843 9381 0
-2843 686 0
-9381 -686 2843 0
-2844 9381 0
-2844 705 0
-9381 -705 2844 0
-2845 9381 0
-2845 723 0
-9381 -723 2845 0
-2846 9381 0
-2846 740 0
-9381 -740 2846 0
-2847 9381 0
-2847 756 0
-9381 -756 2847 0
-2848 9381 0
-2848 771 0
-9381 -771 2848 0
-2849 9381 0
-2849 785 0
-9381 -785 2849 0
-2850 9381 0
-2850 798 0
-9381 -798 2850 0
-2851 9381 0
-2851 810 0
-9381 -810 2851 0
-2852 9381 0
-2852 821 0
-9381 -821 2852 0
-2853 9381 0
-2853 831 0
-9381 -831 2853 0
-2854 9381 0
-2854 840 0
-9381 -840 2854 0
-2855 9381 0
-2855 848 0
-9381 -848 2855 0
-2856 9381 0
-2856 855 0
-9381 -855 2856 0
-2857 9381 0
-2857 862 0
-9381 -862 2857 0
-2858 9381 0
-2858 863 0
-9381 -863 2858 0
-2859 9381 0
-2859 864 0
-9381 -864 2859 0
-2860 9381 0
-2860 865 0
-9381 -865 2860 0
-2861 9381 0
-2861 866 0
-9381 -866 2861 0
-2862 9381 0
-2862 867 0
-9381 -867 2862 0
-2863 9382 0
-2863 687 0
-9382 -687 2863 0
-2864 9382 0
-2864 706 0
-9382 -706 2864 0
-2865 9382 0
-2865 724 0
-9382 -724 2865 0
-2866 9382 0
-2866 741 0
-9382 -741 2866 0
-2867 9382 0
-2867 757 0
-9382 -757 2867 0
-2868 9382 0
-2868 772 0
-9382 -772 2868 0
-2869 9382 0
-2869 786 0
-9382 -786 2869 0
-2870 9382 0
-2870 799 0
-9382 -799 2870 0
-2871 9382 0
-2871 811 0
-9382 -811 2871 0
-2872 9382 0
-2872 822 0
-9382 -822 2872 0
-2873 9382 0
-2873 832 0
-9382 -832 2873 0
-2874 9382 0
-2874 841 0
-9382 -841 2874 0
-2875 9382 0
-2875 849 0
-9382 -849 2875 0
-2876 9382 0
-2876 856 0
-9382 -856 2876 0
-2877 9382 0
-2877 862 0
-9382 -862 2877 0
-2878 9382 0
-2878 868 0
-9382 -868 2878 0
-2879 9382 0
-2879 869 0
-9382 -869 2879 0
-2880 9382 0
-2880 870 0
-9382 -870 2880 0
-2881 9382 0
-2881 871 0
-9382 -871 2881 0
-2882 9382 0
-2882 872 0
-9382 -872 2882 0
-2883 9383 0
-2883 688 0
-9383 -688 2883 0
-2884 9383 0
-2884 707 0
-9383 -707 2884 0
-2885 9383 0
-2885 725 0
-9383 -725 2885 0
-2886 9383 0
-2886 742 0
-9383 -742 2886 0
-2887 9383 0
-2887 758 0
-9383 -758 2887 0
-2888 9383 0
-2888 773 0
-9383 -773 2888 0
-2889 9383 0
-2889 787 0
-9383 -787 2889 0
-2890 9383 0
-2890 800 0
-9383 -800 2890 0
-2891 9383 0
-2891 812 0
-9383 -812 2891 0
-2892 9383 0
-2892 823 0
-9383 -823 2892 0
-2893 9383 0
-2893 833 0
-9383 -833 2893 0
-2894 9383 0
-2894 842 0
-9383 -842 2894 0
-2895 9383 0
-2895 850 0
-9383 -850 2895 0
-2896 9383 0
-2896 857 0
-9383 -857 2896 0
-2897 9383 0
-2897 863 0
-9383 -863 2897 0
-2898 9383 0
-2898 868 0
-9383 -868 2898 0
-2899 9383 0
-2899 873 0
-9383 -873 2899 0
-2900 9383 0
-2900 874 0
-9383 -874 2900 0
-2901 9383 0
-2901 875 0
-9383 -875 2901 0
-2902 9383 0
-2902 876 0
-9383 -876 2902 0
-2903 9384 0
-2903 689 0
-9384 -689 2903 0
-2904 9384 0
-2904 708 0
-9384 -708 2904 0
-2905 9384 0
-2905 726 0
-9384 -726 2905 0
-2906 9384 0
-2906 743 0
-9384 -743 2906 0
-2907 9384 0
-2907 759 0
-9384 -759 2907 0
-2908 9384 0
-2908 774 0
-9384 -774 2908 0
-2909 9384 0
-2909 788 0
-9384 -788 2909 0
-2910 9384 0
-2910 801 0
-9384 -801 2910 0
-2911 9384 0
-2911 813 0
-9384 -813 2911 0
-2912 9384 0
-2912 824 0
-9384 -824 2912 0
-2913 9384 0
-2913 834 0
-9384 -834 2913 0
-2914 9384 0
-2914 843 0
-9384 -843 2914 0
-2915 9384 0
-2915 851 0
-9384 -851 2915 0
-2916 9384 0
-2916 858 0
-9384 -858 2916 0
-2917 9384 0
-2917 864 0
-9384 -864 2917 0
-2918 9384 0
-2918 869 0
-9384 -869 2918 0
-2919 9384 0
-2919 873 0
-9384 -873 2919 0
-2920 9384 0
-2920 877 0
-9384 -877 2920 0
-2921 9384 0
-2921 878 0
-9384 -878 2921 0
-2922 9384 0
-2922 879 0
-9384 -879 2922 0
-2923 9385 0
-2923 690 0
-9385 -690 2923 0
-2924 9385 0
-2924 709 0
-9385 -709 2924 0
-2925 9385 0
-2925 727 0
-9385 -727 2925 0
-2926 9385 0
-2926 744 0
-9385 -744 2926 0
-2927 9385 0
-2927 760 0
-9385 -760 2927 0
-2928 9385 0
-2928 775 0
-9385 -775 2928 0
-2929 9385 0
-2929 789 0
-9385 -789 2929 0
-2930 9385 0
-2930 802 0
-9385 -802 2930 0
-2931 9385 0
-2931 814 0
-9385 -814 2931 0
-2932 9385 0
-2932 825 0
-9385 -825 2932 0
-2933 9385 0
-2933 835 0
-9385 -835 2933 0
-2934 9385 0
-2934 844 0
-9385 -844 2934 0
-2935 9385 0
-2935 852 0
-9385 -852 2935 0
-2936 9385 0
-2936 859 0
-9385 -859 2936 0
-2937 9385 0
-2937 865 0
-9385 -865 2937 0
-2938 9385 0
-2938 870 0
-9385 -870 2938 0
-2939 9385 0
-2939 874 0
-9385 -874 2939 0
-2940 9385 0
-2940 877 0
-9385 -877 2940 0
-2941 9385 0
-2941 880 0
-9385 -880 2941 0
-2942 9385 0
-2942 881 0
-9385 -881 2942 0
-2943 9386 0
-2943 691 0
-9386 -691 2943 0
-2944 9386 0
-2944 710 0
-9386 -710 2944 0
-2945 9386 0
-2945 728 0
-9386 -728 2945 0
-2946 9386 0
-2946 745 0
-9386 -745 2946 0
-2947 9386 0
-2947 761 0
-9386 -761 2947 0
-2948 9386 0
-2948 776 0
-9386 -776 2948 0
-2949 9386 0
-2949 790 0
-9386 -790 2949 0
-2950 9386 0
-2950 803 0
-9386 -803 2950 0
-2951 9386 0
-2951 815 0
-9386 -815 2951 0
-2952 9386 0
-2952 826 0
-9386 -826 2952 0
-2953 9386 0
-2953 836 0
-9386 -836 2953 0
-2954 9386 0
-2954 845 0
-9386 -845 2954 0
-2955 9386 0
-2955 853 0
-9386 -853 2955 0
-2956 9386 0
-2956 860 0
-9386 -860 2956 0
-2957 9386 0
-2957 866 0
-9386 -866 2957 0
-2958 9386 0
-2958 871 0
-9386 -871 2958 0
-2959 9386 0
-2959 875 0
-9386 -875 2959 0
-2960 9386 0
-2960 878 0
-9386 -878 2960 0
-2961 9386 0
-2961 880 0
-9386 -880 2961 0
-2962 9386 0
-2962 882 0
-9386 -882 2962 0
-2963 9387 0
-2963 692 0
-9387 -692 2963 0
-2964 9387 0
-2964 711 0
-9387 -711 2964 0
-2965 9387 0
-2965 729 0
-9387 -729 2965 0
-2966 9387 0
-2966 746 0
-9387 -746 2966 0
-2967 9387 0
-2967 762 0
-9387 -762 2967 0
-2968 9387 0
-2968 777 0
-9387 -777 2968 0
-2969 9387 0
-2969 791 0
-9387 -791 2969 0
-2970 9387 0
-2970 804 0
-9387 -804 2970 0
-2971 9387 0
-2971 816 0
-9387 -816 2971 0
-2972 9387 0
-2972 827 0
-9387 -827 2972 0
-2973 9387 0
-2973 837 0
-9387 -837 2973 0
-2974 9387 0
-2974 846 0
-9387 -846 2974 0
-2975 9387 0
-2975 854 0
-9387 -854 2975 0
-2976 9387 0
-2976 861 0
-9387 -861 2976 0
-2977 9387 0
-2977 867 0
-9387 -867 2977 0
-2978 9387 0
-2978 872 0
-9387 -872 2978 0
-2979 9387 0
-2979 876 0
-9387 -876 2979 0
-2980 9387 0
-2980 879 0
-9387 -879 2980 0
-2981 9387 0
-2981 881 0
-9387 -881 2981 0
-2982 9387 0
-2982 882 0
-9387 -882 2982 0
-2983 9388 0
-2983 673 0
-9388 -673 2983 0
-2984 9388 0
-2984 674 0
-9388 -674 2984 0
-2985 9388 0
-2985 675 0
-9388 -675 2985 0
-2986 9388 0
-2986 676 0
-9388 -676 2986 0
-2987 9388 0
-2987 677 0
-9388 -677 2987 0
-2988 9388 0
-2988 678 0
-9388 -678 2988 0
-2989 9388 0
-2989 679 0
-9388 -679 2989 0
-2990 9388 0
-2990 680 0
-9388 -680 2990 0
-2991 9388 0
-2991 681 0
-9388 -681 2991 0
-2992 9388 0
-2992 682 0
-9388 -682 2992 0
-2993 9388 0
-2993 683 0
-9388 -683 2993 0
-2994 9388 0
-2994 684 0
-9388 -684 2994 0
-2995 9388 0
-2995 685 0
-9388 -685 2995 0
-2996 9388 0
-2996 686 0
-9388 -686 2996 0
-2997 9388 0
-2997 687 0
-9388 -687 2997 0
-2998 9388 0
-2998 688 0
-9388 -688 2998 0
-2999 9388 0
-2999 689 0
-9388 -689 2999 0
-3000 9388 0
-3000 690 0
-9388 -690 3000 0
-3001 9388 0
-3001 691 0
-9388 -691 3001 0
-3002 9388 0
-3002 692 0
-9388 -692 3002 0
-3003 9389 0
-3003 673 0
-9389 -673 3003 0
-3004 9389 0
-3004 693 0
-9389 -693 3004 0
-3005 9389 0
-3005 694 0
-9389 -694 3005 0
-3006 9389 0
-3006 695 0
-9389 -695 3006 0
-3007 9389 0
-3007 696 0
-9389 -696 3007 0
-3008 9389 0
-3008 697 0
-9389 -697 3008 0
-3009 9389 0
-3009 698 0
-9389 -698 3009 0
-3010 9389 0
-3010 699 0
-9389 -699 3010 0
-3011 9389 0
-3011 700 0
-9389 -700 3011 0
-3012 9389 0
-3012 701 0
-9389 -701 3012 0
-3013 9389 0
-3013 702 0
-9389 -702 3013 0
-3014 9389 0
-3014 703 0
-9389 -703 3014 0
-3015 9389 0
-3015 704 0
-9389 -704 3015 0
-3016 9389 0
-3016 705 0
-9389 -705 3016 0
-3017 9389 0
-3017 706 0
-9389 -706 3017 0
-3018 9389 0
-3018 707 0
-9389 -707 3018 0
-3019 9389 0
-3019 708 0
-9389 -708 3019 0
-3020 9389 0
-3020 709 0
-9389 -709 3020 0
-3021 9389 0
-3021 710 0
-9389 -710 3021 0
-3022 9389 0
-3022 711 0
-9389 -711 3022 0
-3023 9390 0
-3023 674 0
-9390 -674 3023 0
-3024 9390 0
-3024 693 0
-9390 -693 3024 0
-3025 9390 0
-3025 712 0
-9390 -712 3025 0
-3026 9390 0
-3026 713 0
-9390 -713 3026 0
-3027 9390 0
-3027 714 0
-9390 -714 3027 0
-3028 9390 0
-3028 715 0
-9390 -715 3028 0
-3029 9390 0
-3029 716 0
-9390 -716 3029 0
-3030 9390 0
-3030 717 0
-9390 -717 3030 0
-3031 9390 0
-3031 718 0
-9390 -718 3031 0
-3032 9390 0
-3032 719 0
-9390 -719 3032 0
-3033 9390 0
-3033 720 0
-9390 -720 3033 0
-3034 9390 0
-3034 721 0
-9390 -721 3034 0
-3035 9390 0
-3035 722 0
-9390 -722 3035 0
-3036 9390 0
-3036 723 0
-9390 -723 3036 0
-3037 9390 0
-3037 724 0
-9390 -724 3037 0
-3038 9390 0
-3038 725 0
-9390 -725 3038 0
-3039 9390 0
-3039 726 0
-9390 -726 3039 0
-3040 9390 0
-3040 727 0
-9390 -727 3040 0
-3041 9390 0
-3041 728 0
-9390 -728 3041 0
-3042 9390 0
-3042 729 0
-9390 -729 3042 0
-3043 9391 0
-3043 675 0
-9391 -675 3043 0
-3044 9391 0
-3044 694 0
-9391 -694 3044 0
-3045 9391 0
-3045 712 0
-9391 -712 3045 0
-3046 9391 0
-3046 730 0
-9391 -730 3046 0
-3047 9391 0
-3047 731 0
-9391 -731 3047 0
-3048 9391 0
-3048 732 0
-9391 -732 3048 0
-3049 9391 0
-3049 733 0
-9391 -733 3049 0
-3050 9391 0
-3050 734 0
-9391 -734 3050 0
-3051 9391 0
-3051 735 0
-9391 -735 3051 0
-3052 9391 0
-3052 736 0
-9391 -736 3052 0
-3053 9391 0
-3053 737 0
-9391 -737 3053 0
-3054 9391 0
-3054 738 0
-9391 -738 3054 0
-3055 9391 0
-3055 739 0
-9391 -739 3055 0
-3056 9391 0
-3056 740 0
-9391 -740 3056 0
-3057 9391 0
-3057 741 0
-9391 -741 3057 0
-3058 9391 0
-3058 742 0
-9391 -742 3058 0
-3059 9391 0
-3059 743 0
-9391 -743 3059 0
-3060 9391 0
-3060 744 0
-9391 -744 3060 0
-3061 9391 0
-3061 745 0
-9391 -745 3061 0
-3062 9391 0
-3062 746 0
-9391 -746 3062 0
-3063 9392 0
-3063 676 0
-9392 -676 3063 0
-3064 9392 0
-3064 695 0
-9392 -695 3064 0
-3065 9392 0
-3065 713 0
-9392 -713 3065 0
-3066 9392 0
-3066 730 0
-9392 -730 3066 0
-3067 9392 0
-3067 747 0
-9392 -747 3067 0
-3068 9392 0
-3068 748 0
-9392 -748 3068 0
-3069 9392 0
-3069 749 0
-9392 -749 3069 0
-3070 9392 0
-3070 750 0
-9392 -750 3070 0
-3071 9392 0
-3071 751 0
-9392 -751 3071 0
-3072 9392 0
-3072 752 0
-9392 -752 3072 0
-3073 9392 0
-3073 753 0
-9392 -753 3073 0
-3074 9392 0
-3074 754 0
-9392 -754 3074 0
-3075 9392 0
-3075 755 0
-9392 -755 3075 0
-3076 9392 0
-3076 756 0
-9392 -756 3076 0
-3077 9392 0
-3077 757 0
-9392 -757 3077 0
-3078 9392 0
-3078 758 0
-9392 -758 3078 0
-3079 9392 0
-3079 759 0
-9392 -759 3079 0
-3080 9392 0
-3080 760 0
-9392 -760 3080 0
-3081 9392 0
-3081 761 0
-9392 -761 3081 0
-3082 9392 0
-3082 762 0
-9392 -762 3082 0
-3083 9393 0
-3083 677 0
-9393 -677 3083 0
-3084 9393 0
-3084 696 0
-9393 -696 3084 0
-3085 9393 0
-3085 714 0
-9393 -714 3085 0
-3086 9393 0
-3086 731 0
-9393 -731 3086 0
-3087 9393 0
-3087 747 0
-9393 -747 3087 0
-3088 9393 0
-3088 763 0
-9393 -763 3088 0
-3089 9393 0
-3089 764 0
-9393 -764 3089 0
-3090 9393 0
-3090 765 0
-9393 -765 3090 0
-3091 9393 0
-3091 766 0
-9393 -766 3091 0
-3092 9393 0
-3092 767 0
-9393 -767 3092 0
-3093 9393 0
-3093 768 0
-9393 -768 3093 0
-3094 9393 0
-3094 769 0
-9393 -769 3094 0
-3095 9393 0
-3095 770 0
-9393 -770 3095 0
-3096 9393 0
-3096 771 0
-9393 -771 3096 0
-3097 9393 0
-3097 772 0
-9393 -772 3097 0
-3098 9393 0
-3098 773 0
-9393 -773 3098 0
-3099 9393 0
-3099 774 0
-9393 -774 3099 0
-3100 9393 0
-3100 775 0
-9393 -775 3100 0
-3101 9393 0
-3101 776 0
-9393 -776 3101 0
-3102 9393 0
-3102 777 0
-9393 -777 3102 0
-3103 9394 0
-3103 678 0
-9394 -678 3103 0
-3104 9394 0
-3104 697 0
-9394 -697 3104 0
-3105 9394 0
-3105 715 0
-9394 -715 3105 0
-3106 9394 0
-3106 732 0
-9394 -732 3106 0
-3107 9394 0
-3107 748 0
-9394 -748 3107 0
-3108 9394 0
-3108 763 0
-9394 -763 3108 0
-3109 9394 0
-3109 778 0
-9394 -778 3109 0
-3110 9394 0
-3110 779 0
-9394 -779 3110 0
-3111 9394 0
-3111 780 0
-9394 -780 3111 0
-3112 9394 0
-3112 781 0
-9394 -781 3112 0
-3113 9394 0
-3113 782 0
-9394 -782 3113 0
-3114 9394 0
-3114 783 0
-9394 -783 3114 0
-3115 9394 0
-3115 784 0
-9394 -784 3115 0
-3116 9394 0
-3116 785 0
-9394 -785 3116 0
-3117 9394 0
-3117 786 0
-9394 -786 3117 0
-3118 9394 0
-3118 787 0
-9394 -787 3118 0
-3119 9394 0
-3119 788 0
-9394 -788 3119 0
-3120 9394 0
-3120 789 0
-9394 -789 3120 0
-3121 9394 0
-3121 790 0
-9394 -790 3121 0
-3122 9394 0
-3122 791 0
-9394 -791 3122 0
-3123 9395 0
-3123 679 0
-9395 -679 3123 0
-3124 9395 0
-3124 698 0
-9395 -698 3124 0
-3125 9395 0
-3125 716 0
-9395 -716 3125 0
-3126 9395 0
-3126 733 0
-9395 -733 3126 0
-3127 9395 0
-3127 749 0
-9395 -749 3127 0
-3128 9395 0
-3128 764 0
-9395 -764 3128 0
-3129 9395 0
-3129 778 0
-9395 -778 3129 0
-3130 9395 0
-3130 792 0
-9395 -792 3130 0
-3131 9395 0
-3131 793 0
-9395 -793 3131 0
-3132 9395 0
-3132 794 0
-9395 -794 3132 0
-3133 9395 0
-3133 795 0
-9395 -795 3133 0
-3134 9395 0
-3134 796 0
-9395 -796 3134 0
-3135 9395 0
-3135 797 0
-9395 -797 3135 0
-3136 9395 0
-3136 798 0
-9395 -798 3136 0
-3137 9395 0
-3137 799 0
-9395 -799 3137 0
-3138 9395 0
-3138 800 0
-9395 -800 3138 0
-3139 9395 0
-3139 801 0
-9395 -801 3139 0
-3140 9395 0
-3140 802 0
-9395 -802 3140 0
-3141 9395 0
-3141 803 0
-9395 -803 3141 0
-3142 9395 0
-3142 804 0
-9395 -804 3142 0
-3143 9396 0
-3143 680 0
-9396 -680 3143 0
-3144 9396 0
-3144 699 0
-9396 -699 3144 0
-3145 9396 0
-3145 717 0
-9396 -717 3145 0
-3146 9396 0
-3146 734 0
-9396 -734 3146 0
-3147 9396 0
-3147 750 0
-9396 -750 3147 0
-3148 9396 0
-3148 765 0
-9396 -765 3148 0
-3149 9396 0
-3149 779 0
-9396 -779 3149 0
-3150 9396 0
-3150 792 0
-9396 -792 3150 0
-3151 9396 0
-3151 805 0
-9396 -805 3151 0
-3152 9396 0
-3152 806 0
-9396 -806 3152 0
-3153 9396 0
-3153 807 0
-9396 -807 3153 0
-3154 9396 0
-3154 808 0
-9396 -808 3154 0
-3155 9396 0
-3155 809 0
-9396 -809 3155 0
-3156 9396 0
-3156 810 0
-9396 -810 3156 0
-3157 9396 0
-3157 811 0
-9396 -811 3157 0
-3158 9396 0
-3158 812 0
-9396 -812 3158 0
-3159 9396 0
-3159 813 0
-9396 -813 3159 0
-3160 9396 0
-3160 814 0
-9396 -814 3160 0
-3161 9396 0
-3161 815 0
-9396 -815 3161 0
-3162 9396 0
-3162 816 0
-9396 -816 3162 0
-3163 9397 0
-3163 681 0
-9397 -681 3163 0
-3164 9397 0
-3164 700 0
-9397 -700 3164 0
-3165 9397 0
-3165 718 0
-9397 -718 3165 0
-3166 9397 0
-3166 735 0
-9397 -735 3166 0
-3167 9397 0
-3167 751 0
-9397 -751 3167 0
-3168 9397 0
-3168 766 0
-9397 -766 3168 0
-3169 9397 0
-3169 780 0
-9397 -780 3169 0
-3170 9397 0
-3170 793 0
-9397 -793 3170 0
-3171 9397 0
-3171 805 0
-9397 -805 3171 0
-3172 9397 0
-3172 817 0
-9397 -817 3172 0
-3173 9397 0
-3173 818 0
-9397 -818 3173 0
-3174 9397 0
-3174 819 0
-9397 -819 3174 0
-3175 9397 0
-3175 820 0
-9397 -820 3175 0
-3176 9397 0
-3176 821 0
-9397 -821 3176 0
-3177 9397 0
-3177 822 0
-9397 -822 3177 0
-3178 9397 0
-3178 823 0
-9397 -823 3178 0
-3179 9397 0
-3179 824 0
-9397 -824 3179 0
-3180 9397 0
-3180 825 0
-9397 -825 3180 0
-3181 9397 0
-3181 826 0
-9397 -826 3181 0
-3182 9397 0
-3182 827 0
-9397 -827 3182 0
-3183 9398 0
-3183 682 0
-9398 -682 3183 0
-3184 9398 0
-3184 701 0
-9398 -701 3184 0
-3185 9398 0
-3185 719 0
-9398 -719 3185 0
-3186 9398 0
-3186 736 0
-9398 -736 3186 0
-3187 9398 0
-3187 752 0
-9398 -752 3187 0
-3188 9398 0
-3188 767 0
-9398 -767 3188 0
-3189 9398 0
-3189 781 0
-9398 -781 3189 0
-3190 9398 0
-3190 794 0
-9398 -794 3190 0
-3191 9398 0
-3191 806 0
-9398 -806 3191 0
-3192 9398 0
-3192 817 0
-9398 -817 3192 0
-3193 9398 0
-3193 828 0
-9398 -828 3193 0
-3194 9398 0
-3194 829 0
-9398 -829 3194 0
-3195 9398 0
-3195 830 0
-9398 -830 3195 0
-3196 9398 0
-3196 831 0
-9398 -831 3196 0
-3197 9398 0
-3197 832 0
-9398 -832 3197 0
-3198 9398 0
-3198 833 0
-9398 -833 3198 0
-3199 9398 0
-3199 834 0
-9398 -834 3199 0
-3200 9398 0
-3200 835 0
-9398 -835 3200 0
-3201 9398 0
-3201 836 0
-9398 -836 3201 0
-3202 9398 0
-3202 837 0
-9398 -837 3202 0
-3203 9399 0
-3203 683 0
-9399 -683 3203 0
-3204 9399 0
-3204 702 0
-9399 -702 3204 0
-3205 9399 0
-3205 720 0
-9399 -720 3205 0
-3206 9399 0
-3206 737 0
-9399 -737 3206 0
-3207 9399 0
-3207 753 0
-9399 -753 3207 0
-3208 9399 0
-3208 768 0
-9399 -768 3208 0
-3209 9399 0
-3209 782 0
-9399 -782 3209 0
-3210 9399 0
-3210 795 0
-9399 -795 3210 0
-3211 9399 0
-3211 807 0
-9399 -807 3211 0
-3212 9399 0
-3212 818 0
-9399 -818 3212 0
-3213 9399 0
-3213 828 0
-9399 -828 3213 0
-3214 9399 0
-3214 838 0
-9399 -838 3214 0
-3215 9399 0
-3215 839 0
-9399 -839 3215 0
-3216 9399 0
-3216 840 0
-9399 -840 3216 0
-3217 9399 0
-3217 841 0
-9399 -841 3217 0
-3218 9399 0
-3218 842 0
-9399 -842 3218 0
-3219 9399 0
-3219 843 0
-9399 -843 3219 0
-3220 9399 0
-3220 844 0
-9399 -844 3220 0
-3221 9399 0
-3221 845 0
-9399 -845 3221 0
-3222 9399 0
-3222 846 0
-9399 -846 3222 0
-3223 9400 0
-3223 684 0
-9400 -684 3223 0
-3224 9400 0
-3224 703 0
-9400 -703 3224 0
-3225 9400 0
-3225 721 0
-9400 -721 3225 0
-3226 9400 0
-3226 738 0
-9400 -738 3226 0
-3227 9400 0
-3227 754 0
-9400 -754 3227 0
-3228 9400 0
-3228 769 0
-9400 -769 3228 0
-3229 9400 0
-3229 783 0
-9400 -783 3229 0
-3230 9400 0
-3230 796 0
-9400 -796 3230 0
-3231 9400 0
-3231 808 0
-9400 -808 3231 0
-3232 9400 0
-3232 819 0
-9400 -819 3232 0
-3233 9400 0
-3233 829 0
-9400 -829 3233 0
-3234 9400 0
-3234 838 0
-9400 -838 3234 0
-3235 9400 0
-3235 847 0
-9400 -847 3235 0
-3236 9400 0
-3236 848 0
-9400 -848 3236 0
-3237 9400 0
-3237 849 0
-9400 -849 3237 0
-3238 9400 0
-3238 850 0
-9400 -850 3238 0
-3239 9400 0
-3239 851 0
-9400 -851 3239 0
-3240 9400 0
-3240 852 0
-9400 -852 3240 0
-3241 9400 0
-3241 853 0
-9400 -853 3241 0
-3242 9400 0
-3242 854 0
-9400 -854 3242 0
-3243 9401 0
-3243 685 0
-9401 -685 3243 0
-3244 9401 0
-3244 704 0
-9401 -704 3244 0
-3245 9401 0
-3245 722 0
-9401 -722 3245 0
-3246 9401 0
-3246 739 0
-9401 -739 3246 0
-3247 9401 0
-3247 755 0
-9401 -755 3247 0
-3248 9401 0
-3248 770 0
-9401 -770 3248 0
-3249 9401 0
-3249 784 0
-9401 -784 3249 0
-3250 9401 0
-3250 797 0
-9401 -797 3250 0
-3251 9401 0
-3251 809 0
-9401 -809 3251 0
-3252 9401 0
-3252 820 0
-9401 -820 3252 0
-3253 9401 0
-3253 830 0
-9401 -830 3253 0
-3254 9401 0
-3254 839 0
-9401 -839 3254 0
-3255 9401 0
-3255 847 0
-9401 -847 3255 0
-3256 9401 0
-3256 855 0
-9401 -855 3256 0
-3257 9401 0
-3257 856 0
-9401 -856 3257 0
-3258 9401 0
-3258 857 0
-9401 -857 3258 0
-3259 9401 0
-3259 858 0
-9401 -858 3259 0
-3260 9401 0
-3260 859 0
-9401 -859 3260 0
-3261 9401 0
-3261 860 0
-9401 -860 3261 0
-3262 9401 0
-3262 861 0
-9401 -861 3262 0
-3263 9402 0
-3263 686 0
-9402 -686 3263 0
-3264 9402 0
-3264 705 0
-9402 -705 3264 0
-3265 9402 0
-3265 723 0
-9402 -723 3265 0
-3266 9402 0
-3266 740 0
-9402 -740 3266 0
-3267 9402 0
-3267 756 0
-9402 -756 3267 0
-3268 9402 0
-3268 771 0
-9402 -771 3268 0
-3269 9402 0
-3269 785 0
-9402 -785 3269 0
-3270 9402 0
-3270 798 0
-9402 -798 3270 0
-3271 9402 0
-3271 810 0
-9402 -810 3271 0
-3272 9402 0
-3272 821 0
-9402 -821 3272 0
-3273 9402 0
-3273 831 0
-9402 -831 3273 0
-3274 9402 0
-3274 840 0
-9402 -840 3274 0
-3275 9402 0
-3275 848 0
-9402 -848 3275 0
-3276 9402 0
-3276 855 0
-9402 -855 3276 0
-3277 9402 0
-3277 862 0
-9402 -862 3277 0
-3278 9402 0
-3278 863 0
-9402 -863 3278 0
-3279 9402 0
-3279 864 0
-9402 -864 3279 0
-3280 9402 0
-3280 865 0
-9402 -865 3280 0
-3281 9402 0
-3281 866 0
-9402 -866 3281 0
-3282 9402 0
-3282 867 0
-9402 -867 3282 0
-3283 9403 0
-3283 687 0
-9403 -687 3283 0
-3284 9403 0
-3284 706 0
-9403 -706 3284 0
-3285 9403 0
-3285 724 0
-9403 -724 3285 0
-3286 9403 0
-3286 741 0
-9403 -741 3286 0
-3287 9403 0
-3287 757 0
-9403 -757 3287 0
-3288 9403 0
-3288 772 0
-9403 -772 3288 0
-3289 9403 0
-3289 786 0
-9403 -786 3289 0
-3290 9403 0
-3290 799 0
-9403 -799 3290 0
-3291 9403 0
-3291 811 0
-9403 -811 3291 0
-3292 9403 0
-3292 822 0
-9403 -822 3292 0
-3293 9403 0
-3293 832 0
-9403 -832 3293 0
-3294 9403 0
-3294 841 0
-9403 -841 3294 0
-3295 9403 0
-3295 849 0
-9403 -849 3295 0
-3296 9403 0
-3296 856 0
-9403 -856 3296 0
-3297 9403 0
-3297 862 0
-9403 -862 3297 0
-3298 9403 0
-3298 868 0
-9403 -868 3298 0
-3299 9403 0
-3299 869 0
-9403 -869 3299 0
-3300 9403 0
-3300 870 0
-9403 -870 3300 0
-3301 9403 0
-3301 871 0
-9403 -871 3301 0
-3302 9403 0
-3302 872 0
-9403 -872 3302 0
-3303 9404 0
-3303 688 0
-9404 -688 3303 0
-3304 9404 0
-3304 707 0
-9404 -707 3304 0
-3305 9404 0
-3305 725 0
-9404 -725 3305 0
-3306 9404 0
-3306 742 0
-9404 -742 3306 0
-3307 9404 0
-3307 758 0
-9404 -758 3307 0
-3308 9404 0
-3308 773 0
-9404 -773 3308 0
-3309 9404 0
-3309 787 0
-9404 -787 3309 0
-3310 9404 0
-3310 800 0
-9404 -800 3310 0
-3311 9404 0
-3311 812 0
-9404 -812 3311 0
-3312 9404 0
-3312 823 0
-9404 -823 3312 0
-3313 9404 0
-3313 833 0
-9404 -833 3313 0
-3314 9404 0
-3314 842 0
-9404 -842 3314 0
-3315 9404 0
-3315 850 0
-9404 -850 3315 0
-3316 9404 0
-3316 857 0
-9404 -857 3316 0
-3317 9404 0
-3317 863 0
-9404 -863 3317 0
-3318 9404 0
-3318 868 0
-9404 -868 3318 0
-3319 9404 0
-3319 873 0
-9404 -873 3319 0
-3320 9404 0
-3320 874 0
-9404 -874 3320 0
-3321 9404 0
-3321 875 0
-9404 -875 3321 0
-3322 9404 0
-3322 876 0
-9404 -876 3322 0
-3323 9405 0
-3323 689 0
-9405 -689 3323 0
-3324 9405 0
-3324 708 0
-9405 -708 3324 0
-3325 9405 0
-3325 726 0
-9405 -726 3325 0
-3326 9405 0
-3326 743 0
-9405 -743 3326 0
-3327 9405 0
-3327 759 0
-9405 -759 3327 0
-3328 9405 0
-3328 774 0
-9405 -774 3328 0
-3329 9405 0
-3329 788 0
-9405 -788 3329 0
-3330 9405 0
-3330 801 0
-9405 -801 3330 0
-3331 9405 0
-3331 813 0
-9405 -813 3331 0
-3332 9405 0
-3332 824 0
-9405 -824 3332 0
-3333 9405 0
-3333 834 0
-9405 -834 3333 0
-3334 9405 0
-3334 843 0
-9405 -843 3334 0
-3335 9405 0
-3335 851 0
-9405 -851 3335 0
-3336 9405 0
-3336 858 0
-9405 -858 3336 0
-3337 9405 0
-3337 864 0
-9405 -864 3337 0
-3338 9405 0
-3338 869 0
-9405 -869 3338 0
-3339 9405 0
-3339 873 0
-9405 -873 3339 0
-3340 9405 0
-3340 877 0
-9405 -877 3340 0
-3341 9405 0
-3341 878 0
-9405 -878 3341 0
-3342 9405 0
-3342 879 0
-9405 -879 3342 0
-3343 9406 0
-3343 690 0
-9406 -690 3343 0
-3344 9406 0
-3344 709 0
-9406 -709 3344 0
-3345 9406 0
-3345 727 0
-9406 -727 3345 0
-3346 9406 0
-3346 744 0
-9406 -744 3346 0
-3347 9406 0
-3347 760 0
-9406 -760 3347 0
-3348 9406 0
-3348 775 0
-9406 -775 3348 0
-3349 9406 0
-3349 789 0
-9406 -789 3349 0
-3350 9406 0
-3350 802 0
-9406 -802 3350 0
-3351 9406 0
-3351 814 0
-9406 -814 3351 0
-3352 9406 0
-3352 825 0
-9406 -825 3352 0
-3353 9406 0
-3353 835 0
-9406 -835 3353 0
-3354 9406 0
-3354 844 0
-9406 -844 3354 0
-3355 9406 0
-3355 852 0
-9406 -852 3355 0
-3356 9406 0
-3356 859 0
-9406 -859 3356 0
-3357 9406 0
-3357 865 0
-9406 -865 3357 0
-3358 9406 0
-3358 870 0
-9406 -870 3358 0
-3359 9406 0
-3359 874 0
-9406 -874 3359 0
-3360 9406 0
-3360 877 0
-9406 -877 3360 0
-3361 9406 0
-3361 880 0
-9406 -880 3361 0
-3362 9406 0
-3362 881 0
-9406 -881 3362 0
-3363 9407 0
-3363 691 0
-9407 -691 3363 0
-3364 9407 0
-3364 710 0
-9407 -710 3364 0
-3365 9407 0
-3365 728 0
-9407 -728 3365 0
-3366 9407 0
-3366 745 0
-9407 -745 3366 0
-3367 9407 0
-3367 761 0
-9407 -761 3367 0
-3368 9407 0
-3368 776 0
-9407 -776 3368 0
-3369 9407 0
-3369 790 0
-9407 -790 3369 0
-3370 9407 0
-3370 803 0
-9407 -803 3370 0
-3371 9407 0
-3371 815 0
-9407 -815 3371 0
-3372 9407 0
-3372 826 0
-9407 -826 3372 0
-3373 9407 0
-3373 836 0
-9407 -836 3373 0
-3374 9407 0
-3374 845 0
-9407 -845 3374 0
-3375 9407 0
-3375 853 0
-9407 -853 3375 0
-3376 9407 0
-3376 860 0
-9407 -860 3376 0
-3377 9407 0
-3377 866 0
-9407 -866 3377 0
-3378 9407 0
-3378 871 0
-9407 -871 3378 0
-3379 9407 0
-3379 875 0
-9407 -875 3379 0
-3380 9407 0
-3380 878 0
-9407 -878 3380 0
-3381 9407 0
-3381 880 0
-9407 -880 3381 0
-3382 9407 0
-3382 882 0
-9407 -882 3382 0
-3383 9408 0
-3383 692 0
-9408 -692 3383 0
-3384 9408 0
-3384 711 0
-9408 -711 3384 0
-3385 9408 0
-3385 729 0
-9408 -729 3385 0
-3386 9408 0
-3386 746 0
-9408 -746 3386 0
-3387 9408 0
-3387 762 0
-9408 -762 3387 0
-3388 9408 0
-3388 777 0
-9408 -777 3388 0
-3389 9408 0
-3389 791 0
-9408 -791 3389 0
-3390 9408 0
-3390 804 0
-9408 -804 3390 0
-3391 9408 0
-3391 816 0
-9408 -816 3391 0
-3392 9408 0
-3392 827 0
-9408 -827 3392 0
-3393 9408 0
-3393 837 0
-9408 -837 3393 0
-3394 9408 0
-3394 846 0
-9408 -846 3394 0
-3395 9408 0
-3395 854 0
-9408 -854 3395 0
-3396 9408 0
-3396 861 0
-9408 -861 3396 0
-3397 9408 0
-3397 867 0
-9408 -867 3397 0
-3398 9408 0
-3398 872 0
-9408 -872 3398 0
-3399 9408 0
-3399 876 0
-9408 -876 3399 0
-3400 9408 0
-3400 879 0
-9408 -879 3400 0
-3401 9408 0
-3401 881 0
-9408 -881 3401 0
-3402 9408 0
-3402 882 0
-9408 -882 3402 0
-3403 9409 0
-3403 673 0
-9409 -673 3403 0
-3404 9409 0
-3404 674 0
-9409 -674 3404 0
-3405 9409 0
-3405 675 0
-9409 -675 3405 0
-3406 9409 0
-3406 676 0
-9409 -676 3406 0
-3407 9409 0
-3407 677 0
-9409 -677 3407 0
-3408 9409 0
-3408 678 0
-9409 -678 3408 0
-3409 9409 0
-3409 679 0
-9409 -679 3409 0
-3410 9409 0
-3410 680 0
-9409 -680 3410 0
-3411 9409 0
-3411 681 0
-9409 -681 3411 0
-3412 9409 0
-3412 682 0
-9409 -682 3412 0
-3413 9409 0
-3413 683 0
-9409 -683 3413 0
-3414 9409 0
-3414 684 0
-9409 -684 3414 0
-3415 9409 0
-3415 685 0
-9409 -685 3415 0
-3416 9409 0
-3416 686 0
-9409 -686 3416 0
-3417 9409 0
-3417 687 0
-9409 -687 3417 0
-3418 9409 0
-3418 688 0
-9409 -688 3418 0
-3419 9409 0
-3419 689 0
-9409 -689 3419 0
-3420 9409 0
-3420 690 0
-9409 -690 3420 0
-3421 9409 0
-3421 691 0
-9409 -691 3421 0
-3422 9409 0
-3422 692 0
-9409 -692 3422 0
-3423 9410 0
-3423 673 0
-9410 -673 3423 0
-3424 9410 0
-3424 693 0
-9410 -693 3424 0
-3425 9410 0
-3425 694 0
-9410 -694 3425 0
-3426 9410 0
-3426 695 0
-9410 -695 3426 0
-3427 9410 0
-3427 696 0
-9410 -696 3427 0
-3428 9410 0
-3428 697 0
-9410 -697 3428 0
-3429 9410 0
-3429 698 0
-9410 -698 3429 0
-3430 9410 0
-3430 699 0
-9410 -699 3430 0
-3431 9410 0
-3431 700 0
-9410 -700 3431 0
-3432 9410 0
-3432 701 0
-9410 -701 3432 0
-3433 9410 0
-3433 702 0
-9410 -702 3433 0
-3434 9410 0
-3434 703 0
-9410 -703 3434 0
-3435 9410 0
-3435 704 0
-9410 -704 3435 0
-3436 9410 0
-3436 705 0
-9410 -705 3436 0
-3437 9410 0
-3437 706 0
-9410 -706 3437 0
-3438 9410 0
-3438 707 0
-9410 -707 3438 0
-3439 9410 0
-3439 708 0
-9410 -708 3439 0
-3440 9410 0
-3440 709 0
-9410 -709 3440 0
-3441 9410 0
-3441 710 0
-9410 -710 3441 0
-3442 9410 0
-3442 711 0
-9410 -711 3442 0
-3443 9411 0
-3443 674 0
-9411 -674 3443 0
-3444 9411 0
-3444 693 0
-9411 -693 3444 0
-3445 9411 0
-3445 712 0
-9411 -712 3445 0
-3446 9411 0
-3446 713 0
-9411 -713 3446 0
-3447 9411 0
-3447 714 0
-9411 -714 3447 0
-3448 9411 0
-3448 715 0
-9411 -715 3448 0
-3449 9411 0
-3449 716 0
-9411 -716 3449 0
-3450 9411 0
-3450 717 0
-9411 -717 3450 0
-3451 9411 0
-3451 718 0
-9411 -718 3451 0
-3452 9411 0
-3452 719 0
-9411 -719 3452 0
-3453 9411 0
-3453 720 0
-9411 -720 3453 0
-3454 9411 0
-3454 721 0
-9411 -721 3454 0
-3455 9411 0
-3455 722 0
-9411 -722 3455 0
-3456 9411 0
-3456 723 0
-9411 -723 3456 0
-3457 9411 0
-3457 724 0
-9411 -724 3457 0
-3458 9411 0
-3458 725 0
-9411 -725 3458 0
-3459 9411 0
-3459 726 0
-9411 -726 3459 0
-3460 9411 0
-3460 727 0
-9411 -727 3460 0
-3461 9411 0
-3461 728 0
-9411 -728 3461 0
-3462 9411 0
-3462 729 0
-9411 -729 3462 0
-3463 9412 0
-3463 675 0
-9412 -675 3463 0
-3464 9412 0
-3464 694 0
-9412 -694 3464 0
-3465 9412 0
-3465 712 0
-9412 -712 3465 0
-3466 9412 0
-3466 730 0
-9412 -730 3466 0
-3467 9412 0
-3467 731 0
-9412 -731 3467 0
-3468 9412 0
-3468 732 0
-9412 -732 3468 0
-3469 9412 0
-3469 733 0
-9412 -733 3469 0
-3470 9412 0
-3470 734 0
-9412 -734 3470 0
-3471 9412 0
-3471 735 0
-9412 -735 3471 0
-3472 9412 0
-3472 736 0
-9412 -736 3472 0
-3473 9412 0
-3473 737 0
-9412 -737 3473 0
-3474 9412 0
-3474 738 0
-9412 -738 3474 0
-3475 9412 0
-3475 739 0
-9412 -739 3475 0
-3476 9412 0
-3476 740 0
-9412 -740 3476 0
-3477 9412 0
-3477 741 0
-9412 -741 3477 0
-3478 9412 0
-3478 742 0
-9412 -742 3478 0
-3479 9412 0
-3479 743 0
-9412 -743 3479 0
-3480 9412 0
-3480 744 0
-9412 -744 3480 0
-3481 9412 0
-3481 745 0
-9412 -745 3481 0
-3482 9412 0
-3482 746 0
-9412 -746 3482 0
-3483 9413 0
-3483 676 0
-9413 -676 3483 0
-3484 9413 0
-3484 695 0
-9413 -695 3484 0
-3485 9413 0
-3485 713 0
-9413 -713 3485 0
-3486 9413 0
-3486 730 0
-9413 -730 3486 0
-3487 9413 0
-3487 747 0
-9413 -747 3487 0
-3488 9413 0
-3488 748 0
-9413 -748 3488 0
-3489 9413 0
-3489 749 0
-9413 -749 3489 0
-3490 9413 0
-3490 750 0
-9413 -750 3490 0
-3491 9413 0
-3491 751 0
-9413 -751 3491 0
-3492 9413 0
-3492 752 0
-9413 -752 3492 0
-3493 9413 0
-3493 753 0
-9413 -753 3493 0
-3494 9413 0
-3494 754 0
-9413 -754 3494 0
-3495 9413 0
-3495 755 0
-9413 -755 3495 0
-3496 9413 0
-3496 756 0
-9413 -756 3496 0
-3497 9413 0
-3497 757 0
-9413 -757 3497 0
-3498 9413 0
-3498 758 0
-9413 -758 3498 0
-3499 9413 0
-3499 759 0
-9413 -759 3499 0
-3500 9413 0
-3500 760 0
-9413 -760 3500 0
-3501 9413 0
-3501 761 0
-9413 -761 3501 0
-3502 9413 0
-3502 762 0
-9413 -762 3502 0
-3503 9414 0
-3503 677 0
-9414 -677 3503 0
-3504 9414 0
-3504 696 0
-9414 -696 3504 0
-3505 9414 0
-3505 714 0
-9414 -714 3505 0
-3506 9414 0
-3506 731 0
-9414 -731 3506 0
-3507 9414 0
-3507 747 0
-9414 -747 3507 0
-3508 9414 0
-3508 763 0
-9414 -763 3508 0
-3509 9414 0
-3509 764 0
-9414 -764 3509 0
-3510 9414 0
-3510 765 0
-9414 -765 3510 0
-3511 9414 0
-3511 766 0
-9414 -766 3511 0
-3512 9414 0
-3512 767 0
-9414 -767 3512 0
-3513 9414 0
-3513 768 0
-9414 -768 3513 0
-3514 9414 0
-3514 769 0
-9414 -769 3514 0
-3515 9414 0
-3515 770 0
-9414 -770 3515 0
-3516 9414 0
-3516 771 0
-9414 -771 3516 0
-3517 9414 0
-3517 772 0
-9414 -772 3517 0
-3518 9414 0
-3518 773 0
-9414 -773 3518 0
-3519 9414 0
-3519 774 0
-9414 -774 3519 0
-3520 9414 0
-3520 775 0
-9414 -775 3520 0
-3521 9414 0
-3521 776 0
-9414 -776 3521 0
-3522 9414 0
-3522 777 0
-9414 -777 3522 0
-3523 9415 0
-3523 678 0
-9415 -678 3523 0
-3524 9415 0
-3524 697 0
-9415 -697 3524 0
-3525 9415 0
-3525 715 0
-9415 -715 3525 0
-3526 9415 0
-3526 732 0
-9415 -732 3526 0
-3527 9415 0
-3527 748 0
-9415 -748 3527 0
-3528 9415 0
-3528 763 0
-9415 -763 3528 0
-3529 9415 0
-3529 778 0
-9415 -778 3529 0
-3530 9415 0
-3530 779 0
-9415 -779 3530 0
-3531 9415 0
-3531 780 0
-9415 -780 3531 0
-3532 9415 0
-3532 781 0
-9415 -781 3532 0
-3533 9415 0
-3533 782 0
-9415 -782 3533 0
-3534 9415 0
-3534 783 0
-9415 -783 3534 0
-3535 9415 0
-3535 784 0
-9415 -784 3535 0
-3536 9415 0
-3536 785 0
-9415 -785 3536 0
-3537 9415 0
-3537 786 0
-9415 -786 3537 0
-3538 9415 0
-3538 787 0
-9415 -787 3538 0
-3539 9415 0
-3539 788 0
-9415 -788 3539 0
-3540 9415 0
-3540 789 0
-9415 -789 3540 0
-3541 9415 0
-3541 790 0
-9415 -790 3541 0
-3542 9415 0
-3542 791 0
-9415 -791 3542 0
-3543 9416 0
-3543 679 0
-9416 -679 3543 0
-3544 9416 0
-3544 698 0
-9416 -698 3544 0
-3545 9416 0
-3545 716 0
-9416 -716 3545 0
-3546 9416 0
-3546 733 0
-9416 -733 3546 0
-3547 9416 0
-3547 749 0
-9416 -749 3547 0
-3548 9416 0
-3548 764 0
-9416 -764 3548 0
-3549 9416 0
-3549 778 0
-9416 -778 3549 0
-3550 9416 0
-3550 792 0
-9416 -792 3550 0
-3551 9416 0
-3551 793 0
-9416 -793 3551 0
-3552 9416 0
-3552 794 0
-9416 -794 3552 0
-3553 9416 0
-3553 795 0
-9416 -795 3553 0
-3554 9416 0
-3554 796 0
-9416 -796 3554 0
-3555 9416 0
-3555 797 0
-9416 -797 3555 0
-3556 9416 0
-3556 798 0
-9416 -798 3556 0
-3557 9416 0
-3557 799 0
-9416 -799 3557 0
-3558 9416 0
-3558 800 0
-9416 -800 3558 0
-3559 9416 0
-3559 801 0
-9416 -801 3559 0
-3560 9416 0
-3560 802 0
-9416 -802 3560 0
-3561 9416 0
-3561 803 0
-9416 -803 3561 0
-3562 9416 0
-3562 804 0
-9416 -804 3562 0
-3563 9417 0
-3563 680 0
-9417 -680 3563 0
-3564 9417 0
-3564 699 0
-9417 -699 3564 0
-3565 9417 0
-3565 717 0
-9417 -717 3565 0
-3566 9417 0
-3566 734 0
-9417 -734 3566 0
-3567 9417 0
-3567 750 0
-9417 -750 3567 0
-3568 9417 0
-3568 765 0
-9417 -765 3568 0
-3569 9417 0
-3569 779 0
-9417 -779 3569 0
-3570 9417 0
-3570 792 0
-9417 -792 3570 0
-3571 9417 0
-3571 805 0
-9417 -805 3571 0
-3572 9417 0
-3572 806 0
-9417 -806 3572 0
-3573 9417 0
-3573 807 0
-9417 -807 3573 0
-3574 9417 0
-3574 808 0
-9417 -808 3574 0
-3575 9417 0
-3575 809 0
-9417 -809 3575 0
-3576 9417 0
-3576 810 0
-9417 -810 3576 0
-3577 9417 0
-3577 811 0
-9417 -811 3577 0
-3578 9417 0
-3578 812 0
-9417 -812 3578 0
-3579 9417 0
-3579 813 0
-9417 -813 3579 0
-3580 9417 0
-3580 814 0
-9417 -814 3580 0
-3581 9417 0
-3581 815 0
-9417 -815 3581 0
-3582 9417 0
-3582 816 0
-9417 -816 3582 0
-3583 9418 0
-3583 681 0
-9418 -681 3583 0
-3584 9418 0
-3584 700 0
-9418 -700 3584 0
-3585 9418 0
-3585 718 0
-9418 -718 3585 0
-3586 9418 0
-3586 735 0
-9418 -735 3586 0
-3587 9418 0
-3587 751 0
-9418 -751 3587 0
-3588 9418 0
-3588 766 0
-9418 -766 3588 0
-3589 9418 0
-3589 780 0
-9418 -780 3589 0
-3590 9418 0
-3590 793 0
-9418 -793 3590 0
-3591 9418 0
-3591 805 0
-9418 -805 3591 0
-3592 9418 0
-3592 817 0
-9418 -817 3592 0
-3593 9418 0
-3593 818 0
-9418 -818 3593 0
-3594 9418 0
-3594 819 0
-9418 -819 3594 0
-3595 9418 0
-3595 820 0
-9418 -820 3595 0
-3596 9418 0
-3596 821 0
-9418 -821 3596 0
-3597 9418 0
-3597 822 0
-9418 -822 3597 0
-3598 9418 0
-3598 823 0
-9418 -823 3598 0
-3599 9418 0
-3599 824 0
-9418 -824 3599 0
-3600 9418 0
-3600 825 0
-9418 -825 3600 0
-3601 9418 0
-3601 826 0
-9418 -826 3601 0
-3602 9418 0
-3602 827 0
-9418 -827 3602 0
-3603 9419 0
-3603 682 0
-9419 -682 3603 0
-3604 9419 0
-3604 701 0
-9419 -701 3604 0
-3605 9419 0
-3605 719 0
-9419 -719 3605 0
-3606 9419 0
-3606 736 0
-9419 -736 3606 0
-3607 9419 0
-3607 752 0
-9419 -752 3607 0
-3608 9419 0
-3608 767 0
-9419 -767 3608 0
-3609 9419 0
-3609 781 0
-9419 -781 3609 0
-3610 9419 0
-3610 794 0
-9419 -794 3610 0
-3611 9419 0
-3611 806 0
-9419 -806 3611 0
-3612 9419 0
-3612 817 0
-9419 -817 3612 0
-3613 9419 0
-3613 828 0
-9419 -828 3613 0
-3614 9419 0
-3614 829 0
-9419 -829 3614 0
-3615 9419 0
-3615 830 0
-9419 -830 3615 0
-3616 9419 0
-3616 831 0
-9419 -831 3616 0
-3617 9419 0
-3617 832 0
-9419 -832 3617 0
-3618 9419 0
-3618 833 0
-9419 -833 3618 0
-3619 9419 0
-3619 834 0
-9419 -834 3619 0
-3620 9419 0
-3620 835 0
-9419 -835 3620 0
-3621 9419 0
-3621 836 0
-9419 -836 3621 0
-3622 9419 0
-3622 837 0
-9419 -837 3622 0
-3623 9420 0
-3623 683 0
-9420 -683 3623 0
-3624 9420 0
-3624 702 0
-9420 -702 3624 0
-3625 9420 0
-3625 720 0
-9420 -720 3625 0
-3626 9420 0
-3626 737 0
-9420 -737 3626 0
-3627 9420 0
-3627 753 0
-9420 -753 3627 0
-3628 9420 0
-3628 768 0
-9420 -768 3628 0
-3629 9420 0
-3629 782 0
-9420 -782 3629 0
-3630 9420 0
-3630 795 0
-9420 -795 3630 0
-3631 9420 0
-3631 807 0
-9420 -807 3631 0
-3632 9420 0
-3632 818 0
-9420 -818 3632 0
-3633 9420 0
-3633 828 0
-9420 -828 3633 0
-3634 9420 0
-3634 838 0
-9420 -838 3634 0
-3635 9420 0
-3635 839 0
-9420 -839 3635 0
-3636 9420 0
-3636 840 0
-9420 -840 3636 0
-3637 9420 0
-3637 841 0
-9420 -841 3637 0
-3638 9420 0
-3638 842 0
-9420 -842 3638 0
-3639 9420 0
-3639 843 0
-9420 -843 3639 0
-3640 9420 0
-3640 844 0
-9420 -844 3640 0
-3641 9420 0
-3641 845 0
-9420 -845 3641 0
-3642 9420 0
-3642 846 0
-9420 -846 3642 0
-3643 9421 0
-3643 684 0
-9421 -684 3643 0
-3644 9421 0
-3644 703 0
-9421 -703 3644 0
-3645 9421 0
-3645 721 0
-9421 -721 3645 0
-3646 9421 0
-3646 738 0
-9421 -738 3646 0
-3647 9421 0
-3647 754 0
-9421 -754 3647 0
-3648 9421 0
-3648 769 0
-9421 -769 3648 0
-3649 9421 0
-3649 783 0
-9421 -783 3649 0
-3650 9421 0
-3650 796 0
-9421 -796 3650 0
-3651 9421 0
-3651 808 0
-9421 -808 3651 0
-3652 9421 0
-3652 819 0
-9421 -819 3652 0
-3653 9421 0
-3653 829 0
-9421 -829 3653 0
-3654 9421 0
-3654 838 0
-9421 -838 3654 0
-3655 9421 0
-3655 847 0
-9421 -847 3655 0
-3656 9421 0
-3656 848 0
-9421 -848 3656 0
-3657 9421 0
-3657 849 0
-9421 -849 3657 0
-3658 9421 0
-3658 850 0
-9421 -850 3658 0
-3659 9421 0
-3659 851 0
-9421 -851 3659 0
-3660 9421 0
-3660 852 0
-9421 -852 3660 0
-3661 9421 0
-3661 853 0
-9421 -853 3661 0
-3662 9421 0
-3662 854 0
-9421 -854 3662 0
-3663 9422 0
-3663 685 0
-9422 -685 3663 0
-3664 9422 0
-3664 704 0
-9422 -704 3664 0
-3665 9422 0
-3665 722 0
-9422 -722 3665 0
-3666 9422 0
-3666 739 0
-9422 -739 3666 0
-3667 9422 0
-3667 755 0
-9422 -755 3667 0
-3668 9422 0
-3668 770 0
-9422 -770 3668 0
-3669 9422 0
-3669 784 0
-9422 -784 3669 0
-3670 9422 0
-3670 797 0
-9422 -797 3670 0
-3671 9422 0
-3671 809 0
-9422 -809 3671 0
-3672 9422 0
-3672 820 0
-9422 -820 3672 0
-3673 9422 0
-3673 830 0
-9422 -830 3673 0
-3674 9422 0
-3674 839 0
-9422 -839 3674 0
-3675 9422 0
-3675 847 0
-9422 -847 3675 0
-3676 9422 0
-3676 855 0
-9422 -855 3676 0
-3677 9422 0
-3677 856 0
-9422 -856 3677 0
-3678 9422 0
-3678 857 0
-9422 -857 3678 0
-3679 9422 0
-3679 858 0
-9422 -858 3679 0
-3680 9422 0
-3680 859 0
-9422 -859 3680 0
-3681 9422 0
-3681 860 0
-9422 -860 3681 0
-3682 9422 0
-3682 861 0
-9422 -861 3682 0
-3683 9423 0
-3683 686 0
-9423 -686 3683 0
-3684 9423 0
-3684 705 0
-9423 -705 3684 0
-3685 9423 0
-3685 723 0
-9423 -723 3685 0
-3686 9423 0
-3686 740 0
-9423 -740 3686 0
-3687 9423 0
-3687 756 0
-9423 -756 3687 0
-3688 9423 0
-3688 771 0
-9423 -771 3688 0
-3689 9423 0
-3689 785 0
-9423 -785 3689 0
-3690 9423 0
-3690 798 0
-9423 -798 3690 0
-3691 9423 0
-3691 810 0
-9423 -810 3691 0
-3692 9423 0
-3692 821 0
-9423 -821 3692 0
-3693 9423 0
-3693 831 0
-9423 -831 3693 0
-3694 9423 0
-3694 840 0
-9423 -840 3694 0
-3695 9423 0
-3695 848 0
-9423 -848 3695 0
-3696 9423 0
-3696 855 0
-9423 -855 3696 0
-3697 9423 0
-3697 862 0
-9423 -862 3697 0
-3698 9423 0
-3698 863 0
-9423 -863 3698 0
-3699 9423 0
-3699 864 0
-9423 -864 3699 0
-3700 9423 0
-3700 865 0
-9423 -865 3700 0
-3701 9423 0
-3701 866 0
-9423 -866 3701 0
-3702 9423 0
-3702 867 0
-9423 -867 3702 0
-3703 9424 0
-3703 687 0
-9424 -687 3703 0
-3704 9424 0
-3704 706 0
-9424 -706 3704 0
-3705 9424 0
-3705 724 0
-9424 -724 3705 0
-3706 9424 0
-3706 741 0
-9424 -741 3706 0
-3707 9424 0
-3707 757 0
-9424 -757 3707 0
-3708 9424 0
-3708 772 0
-9424 -772 3708 0
-3709 9424 0
-3709 786 0
-9424 -786 3709 0
-3710 9424 0
-3710 799 0
-9424 -799 3710 0
-3711 9424 0
-3711 811 0
-9424 -811 3711 0
-3712 9424 0
-3712 822 0
-9424 -822 3712 0
-3713 9424 0
-3713 832 0
-9424 -832 3713 0
-3714 9424 0
-3714 841 0
-9424 -841 3714 0
-3715 9424 0
-3715 849 0
-9424 -849 3715 0
-3716 9424 0
-3716 856 0
-9424 -856 3716 0
-3717 9424 0
-3717 862 0
-9424 -862 3717 0
-3718 9424 0
-3718 868 0
-9424 -868 3718 0
-3719 9424 0
-3719 869 0
-9424 -869 3719 0
-3720 9424 0
-3720 870 0
-9424 -870 3720 0
-3721 9424 0
-3721 871 0
-9424 -871 3721 0
-3722 9424 0
-3722 872 0
-9424 -872 3722 0
-3723 9425 0
-3723 688 0
-9425 -688 3723 0
-3724 9425 0
-3724 707 0
-9425 -707 3724 0
-3725 9425 0
-3725 725 0
-9425 -725 3725 0
-3726 9425 0
-3726 742 0
-9425 -742 3726 0
-3727 9425 0
-3727 758 0
-9425 -758 3727 0
-3728 9425 0
-3728 773 0
-9425 -773 3728 0
-3729 9425 0
-3729 787 0
-9425 -787 3729 0
-3730 9425 0
-3730 800 0
-9425 -800 3730 0
-3731 9425 0
-3731 812 0
-9425 -812 3731 0
-3732 9425 0
-3732 823 0
-9425 -823 3732 0
-3733 9425 0
-3733 833 0
-9425 -833 3733 0
-3734 9425 0
-3734 842 0
-9425 -842 3734 0
-3735 9425 0
-3735 850 0
-9425 -850 3735 0
-3736 9425 0
-3736 857 0
-9425 -857 3736 0
-3737 9425 0
-3737 863 0
-9425 -863 3737 0
-3738 9425 0
-3738 868 0
-9425 -868 3738 0
-3739 9425 0
-3739 873 0
-9425 -873 3739 0
-3740 9425 0
-3740 874 0
-9425 -874 3740 0
-3741 9425 0
-3741 875 0
-9425 -875 3741 0
-3742 9425 0
-3742 876 0
-9425 -876 3742 0
-3743 9426 0
-3743 689 0
-9426 -689 3743 0
-3744 9426 0
-3744 708 0
-9426 -708 3744 0
-3745 9426 0
-3745 726 0
-9426 -726 3745 0
-3746 9426 0
-3746 743 0
-9426 -743 3746 0
-3747 9426 0
-3747 759 0
-9426 -759 3747 0
-3748 9426 0
-3748 774 0
-9426 -774 3748 0
-3749 9426 0
-3749 788 0
-9426 -788 3749 0
-3750 9426 0
-3750 801 0
-9426 -801 3750 0
-3751 9426 0
-3751 813 0
-9426 -813 3751 0
-3752 9426 0
-3752 824 0
-9426 -824 3752 0
-3753 9426 0
-3753 834 0
-9426 -834 3753 0
-3754 9426 0
-3754 843 0
-9426 -843 3754 0
-3755 9426 0
-3755 851 0
-9426 -851 3755 0
-3756 9426 0
-3756 858 0
-9426 -858 3756 0
-3757 9426 0
-3757 864 0
-9426 -864 3757 0
-3758 9426 0
-3758 869 0
-9426 -869 3758 0
-3759 9426 0
-3759 873 0
-9426 -873 3759 0
-3760 9426 0
-3760 877 0
-9426 -877 3760 0
-3761 9426 0
-3761 878 0
-9426 -878 3761 0
-3762 9426 0
-3762 879 0
-9426 -879 3762 0
-3763 9427 0
-3763 690 0
-9427 -690 3763 0
-3764 9427 0
-3764 709 0
-9427 -709 3764 0
-3765 9427 0
-3765 727 0
-9427 -727 3765 0
-3766 9427 0
-3766 744 0
-9427 -744 3766 0
-3767 9427 0
-3767 760 0
-9427 -760 3767 0
-3768 9427 0
-3768 775 0
-9427 -775 3768 0
-3769 9427 0
-3769 789 0
-9427 -789 3769 0
-3770 9427 0
-3770 802 0
-9427 -802 3770 0
-3771 9427 0
-3771 814 0
-9427 -814 3771 0
-3772 9427 0
-3772 825 0
-9427 -825 3772 0
-3773 9427 0
-3773 835 0
-9427 -835 3773 0
-3774 9427 0
-3774 844 0
-9427 -844 3774 0
-3775 9427 0
-3775 852 0
-9427 -852 3775 0
-3776 9427 0
-3776 859 0
-9427 -859 3776 0
-3777 9427 0
-3777 865 0
-9427 -865 3777 0
-3778 9427 0
-3778 870 0
-9427 -870 3778 0
-3779 9427 0
-3779 874 0
-9427 -874 3779 0
-3780 9427 0
-3780 877 0
-9427 -877 3780 0
-3781 9427 0
-3781 880 0
-9427 -880 3781 0
-3782 9427 0
-3782 881 0
-9427 -881 3782 0
-3783 9428 0
-3783 691 0
-9428 -691 3783 0
-3784 9428 0
-3784 710 0
-9428 -710 3784 0
-3785 9428 0
-3785 728 0
-9428 -728 3785 0
-3786 9428 0
-3786 745 0
-9428 -745 3786 0
-3787 9428 0
-3787 761 0
-9428 -761 3787 0
-3788 9428 0
-3788 776 0
-9428 -776 3788 0
-3789 9428 0
-3789 790 0
-9428 -790 3789 0
-3790 9428 0
-3790 803 0
-9428 -803 3790 0
-3791 9428 0
-3791 815 0
-9428 -815 3791 0
-3792 9428 0
-3792 826 0
-9428 -826 3792 0
-3793 9428 0
-3793 836 0
-9428 -836 3793 0
-3794 9428 0
-3794 845 0
-9428 -845 3794 0
-3795 9428 0
-3795 853 0
-9428 -853 3795 0
-3796 9428 0
-3796 860 0
-9428 -860 3796 0
-3797 9428 0
-3797 866 0
-9428 -866 3797 0
-3798 9428 0
-3798 871 0
-9428 -871 3798 0
-3799 9428 0
-3799 875 0
-9428 -875 3799 0
-3800 9428 0
-3800 878 0
-9428 -878 3800 0
-3801 9428 0
-3801 880 0
-9428 -880 3801 0
-3802 9428 0
-3802 882 0
-9428 -882 3802 0
-3803 9429 0
-3803 692 0
-9429 -692 3803 0
-3804 9429 0
-3804 711 0
-9429 -711 3804 0
-3805 9429 0
-3805 729 0
-9429 -729 3805 0
-3806 9429 0
-3806 746 0
-9429 -746 3806 0
-3807 9429 0
-3807 762 0
-9429 -762 3807 0
-3808 9429 0
-3808 777 0
-9429 -777 3808 0
-3809 9429 0
-3809 791 0
-9429 -791 3809 0
-3810 9429 0
-3810 804 0
-9429 -804 3810 0
-3811 9429 0
-3811 816 0
-9429 -816 3811 0
-3812 9429 0
-3812 827 0
-9429 -827 3812 0
-3813 9429 0
-3813 837 0
-9429 -837 3813 0
-3814 9429 0
-3814 846 0
-9429 -846 3814 0
-3815 9429 0
-3815 854 0
-9429 -854 3815 0
-3816 9429 0
-3816 861 0
-9429 -861 3816 0
-3817 9429 0
-3817 867 0
-9429 -867 3817 0
-3818 9429 0
-3818 872 0
-9429 -872 3818 0
-3819 9429 0
-3819 876 0
-9429 -876 3819 0
-3820 9429 0
-3820 879 0
-9429 -879 3820 0
-3821 9429 0
-3821 881 0
-9429 -881 3821 0
-3822 9429 0
-3822 882 0
-9429 -882 3822 0
-3823 9430 0
-3823 673 0
-9430 -673 3823 0
-3824 9430 0
-3824 674 0
-9430 -674 3824 0
-3825 9430 0
-3825 675 0
-9430 -675 3825 0
-3826 9430 0
-3826 676 0
-9430 -676 3826 0
-3827 9430 0
-3827 677 0
-9430 -677 3827 0
-3828 9430 0
-3828 678 0
-9430 -678 3828 0
-3829 9430 0
-3829 679 0
-9430 -679 3829 0
-3830 9430 0
-3830 680 0
-9430 -680 3830 0
-3831 9430 0
-3831 681 0
-9430 -681 3831 0
-3832 9430 0
-3832 682 0
-9430 -682 3832 0
-3833 9430 0
-3833 683 0
-9430 -683 3833 0
-3834 9430 0
-3834 684 0
-9430 -684 3834 0
-3835 9430 0
-3835 685 0
-9430 -685 3835 0
-3836 9430 0
-3836 686 0
-9430 -686 3836 0
-3837 9430 0
-3837 687 0
-9430 -687 3837 0
-3838 9430 0
-3838 688 0
-9430 -688 3838 0
-3839 9430 0
-3839 689 0
-9430 -689 3839 0
-3840 9430 0
-3840 690 0
-9430 -690 3840 0
-3841 9430 0
-3841 691 0
-9430 -691 3841 0
-3842 9430 0
-3842 692 0
-9430 -692 3842 0
-3843 9431 0
-3843 673 0
-9431 -673 3843 0
-3844 9431 0
-3844 693 0
-9431 -693 3844 0
-3845 9431 0
-3845 694 0
-9431 -694 3845 0
-3846 9431 0
-3846 695 0
-9431 -695 3846 0
-3847 9431 0
-3847 696 0
-9431 -696 3847 0
-3848 9431 0
-3848 697 0
-9431 -697 3848 0
-3849 9431 0
-3849 698 0
-9431 -698 3849 0
-3850 9431 0
-3850 699 0
-9431 -699 3850 0
-3851 9431 0
-3851 700 0
-9431 -700 3851 0
-3852 9431 0
-3852 701 0
-9431 -701 3852 0
-3853 9431 0
-3853 702 0
-9431 -702 3853 0
-3854 9431 0
-3854 703 0
-9431 -703 3854 0
-3855 9431 0
-3855 704 0
-9431 -704 3855 0
-3856 9431 0
-3856 705 0
-9431 -705 3856 0
-3857 9431 0
-3857 706 0
-9431 -706 3857 0
-3858 9431 0
-3858 707 0
-9431 -707 3858 0
-3859 9431 0
-3859 708 0
-9431 -708 3859 0
-3860 9431 0
-3860 709 0
-9431 -709 3860 0
-3861 9431 0
-3861 710 0
-9431 -710 3861 0
-3862 9431 0
-3862 711 0
-9431 -711 3862 0
-3863 9432 0
-3863 674 0
-9432 -674 3863 0
-3864 9432 0
-3864 693 0
-9432 -693 3864 0
-3865 9432 0
-3865 712 0
-9432 -712 3865 0
-3866 9432 0
-3866 713 0
-9432 -713 3866 0
-3867 9432 0
-3867 714 0
-9432 -714 3867 0
-3868 9432 0
-3868 715 0
-9432 -715 3868 0
-3869 9432 0
-3869 716 0
-9432 -716 3869 0
-3870 9432 0
-3870 717 0
-9432 -717 3870 0
-3871 9432 0
-3871 718 0
-9432 -718 3871 0
-3872 9432 0
-3872 719 0
-9432 -719 3872 0
-3873 9432 0
-3873 720 0
-9432 -720 3873 0
-3874 9432 0
-3874 721 0
-9432 -721 3874 0
-3875 9432 0
-3875 722 0
-9432 -722 3875 0
-3876 9432 0
-3876 723 0
-9432 -723 3876 0
-3877 9432 0
-3877 724 0
-9432 -724 3877 0
-3878 9432 0
-3878 725 0
-9432 -725 3878 0
-3879 9432 0
-3879 726 0
-9432 -726 3879 0
-3880 9432 0
-3880 727 0
-9432 -727 3880 0
-3881 9432 0
-3881 728 0
-9432 -728 3881 0
-3882 9432 0
-3882 729 0
-9432 -729 3882 0
-3883 9433 0
-3883 675 0
-9433 -675 3883 0
-3884 9433 0
-3884 694 0
-9433 -694 3884 0
-3885 9433 0
-3885 712 0
-9433 -712 3885 0
-3886 9433 0
-3886 730 0
-9433 -730 3886 0
-3887 9433 0
-3887 731 0
-9433 -731 3887 0
-3888 9433 0
-3888 732 0
-9433 -732 3888 0
-3889 9433 0
-3889 733 0
-9433 -733 3889 0
-3890 9433 0
-3890 734 0
-9433 -734 3890 0
-3891 9433 0
-3891 735 0
-9433 -735 3891 0
-3892 9433 0
-3892 736 0
-9433 -736 3892 0
-3893 9433 0
-3893 737 0
-9433 -737 3893 0
-3894 9433 0
-3894 738 0
-9433 -738 3894 0
-3895 9433 0
-3895 739 0
-9433 -739 3895 0
-3896 9433 0
-3896 740 0
-9433 -740 3896 0
-3897 9433 0
-3897 741 0
-9433 -741 3897 0
-3898 9433 0
-3898 742 0
-9433 -742 3898 0
-3899 9433 0
-3899 743 0
-9433 -743 3899 0
-3900 9433 0
-3900 744 0
-9433 -744 3900 0
-3901 9433 0
-3901 745 0
-9433 -745 3901 0
-3902 9433 0
-3902 746 0
-9433 -746 3902 0
-3903 9434 0
-3903 676 0
-9434 -676 3903 0
-3904 9434 0
-3904 695 0
-9434 -695 3904 0
-3905 9434 0
-3905 713 0
-9434 -713 3905 0
-3906 9434 0
-3906 730 0
-9434 -730 3906 0
-3907 9434 0
-3907 747 0
-9434 -747 3907 0
-3908 9434 0
-3908 748 0
-9434 -748 3908 0
-3909 9434 0
-3909 749 0
-9434 -749 3909 0
-3910 9434 0
-3910 750 0
-9434 -750 3910 0
-3911 9434 0
-3911 751 0
-9434 -751 3911 0
-3912 9434 0
-3912 752 0
-9434 -752 3912 0
-3913 9434 0
-3913 753 0
-9434 -753 3913 0
-3914 9434 0
-3914 754 0
-9434 -754 3914 0
-3915 9434 0
-3915 755 0
-9434 -755 3915 0
-3916 9434 0
-3916 756 0
-9434 -756 3916 0
-3917 9434 0
-3917 757 0
-9434 -757 3917 0
-3918 9434 0
-3918 758 0
-9434 -758 3918 0
-3919 9434 0
-3919 759 0
-9434 -759 3919 0
-3920 9434 0
-3920 760 0
-9434 -760 3920 0
-3921 9434 0
-3921 761 0
-9434 -761 3921 0
-3922 9434 0
-3922 762 0
-9434 -762 3922 0
-3923 9435 0
-3923 677 0
-9435 -677 3923 0
-3924 9435 0
-3924 696 0
-9435 -696 3924 0
-3925 9435 0
-3925 714 0
-9435 -714 3925 0
-3926 9435 0
-3926 731 0
-9435 -731 3926 0
-3927 9435 0
-3927 747 0
-9435 -747 3927 0
-3928 9435 0
-3928 763 0
-9435 -763 3928 0
-3929 9435 0
-3929 764 0
-9435 -764 3929 0
-3930 9435 0
-3930 765 0
-9435 -765 3930 0
-3931 9435 0
-3931 766 0
-9435 -766 3931 0
-3932 9435 0
-3932 767 0
-9435 -767 3932 0
-3933 9435 0
-3933 768 0
-9435 -768 3933 0
-3934 9435 0
-3934 769 0
-9435 -769 3934 0
-3935 9435 0
-3935 770 0
-9435 -770 3935 0
-3936 9435 0
-3936 771 0
-9435 -771 3936 0
-3937 9435 0
-3937 772 0
-9435 -772 3937 0
-3938 9435 0
-3938 773 0
-9435 -773 3938 0
-3939 9435 0
-3939 774 0
-9435 -774 3939 0
-3940 9435 0
-3940 775 0
-9435 -775 3940 0
-3941 9435 0
-3941 776 0
-9435 -776 3941 0
-3942 9435 0
-3942 777 0
-9435 -777 3942 0
-3943 9436 0
-3943 678 0
-9436 -678 3943 0
-3944 9436 0
-3944 697 0
-9436 -697 3944 0
-3945 9436 0
-3945 715 0
-9436 -715 3945 0
-3946 9436 0
-3946 732 0
-9436 -732 3946 0
-3947 9436 0
-3947 748 0
-9436 -748 3947 0
-3948 9436 0
-3948 763 0
-9436 -763 3948 0
-3949 9436 0
-3949 778 0
-9436 -778 3949 0
-3950 9436 0
-3950 779 0
-9436 -779 3950 0
-3951 9436 0
-3951 780 0
-9436 -780 3951 0
-3952 9436 0
-3952 781 0
-9436 -781 3952 0
-3953 9436 0
-3953 782 0
-9436 -782 3953 0
-3954 9436 0
-3954 783 0
-9436 -783 3954 0
-3955 9436 0
-3955 784 0
-9436 -784 3955 0
-3956 9436 0
-3956 785 0
-9436 -785 3956 0
-3957 9436 0
-3957 786 0
-9436 -786 3957 0
-3958 9436 0
-3958 787 0
-9436 -787 3958 0
-3959 9436 0
-3959 788 0
-9436 -788 3959 0
-3960 9436 0
-3960 789 0
-9436 -789 3960 0
-3961 9436 0
-3961 790 0
-9436 -790 3961 0
-3962 9436 0
-3962 791 0
-9436 -791 3962 0
-3963 9437 0
-3963 679 0
-9437 -679 3963 0
-3964 9437 0
-3964 698 0
-9437 -698 3964 0
-3965 9437 0
-3965 716 0
-9437 -716 3965 0
-3966 9437 0
-3966 733 0
-9437 -733 3966 0
-3967 9437 0
-3967 749 0
-9437 -749 3967 0
-3968 9437 0
-3968 764 0
-9437 -764 3968 0
-3969 9437 0
-3969 778 0
-9437 -778 3969 0
-3970 9437 0
-3970 792 0
-9437 -792 3970 0
-3971 9437 0
-3971 793 0
-9437 -793 3971 0
-3972 9437 0
-3972 794 0
-9437 -794 3972 0
-3973 9437 0
-3973 795 0
-9437 -795 3973 0
-3974 9437 0
-3974 796 0
-9437 -796 3974 0
-3975 9437 0
-3975 797 0
-9437 -797 3975 0
-3976 9437 0
-3976 798 0
-9437 -798 3976 0
-3977 9437 0
-3977 799 0
-9437 -799 3977 0
-3978 9437 0
-3978 800 0
-9437 -800 3978 0
-3979 9437 0
-3979 801 0
-9437 -801 3979 0
-3980 9437 0
-3980 802 0
-9437 -802 3980 0
-3981 9437 0
-3981 803 0
-9437 -803 3981 0
-3982 9437 0
-3982 804 0
-9437 -804 3982 0
-3983 9438 0
-3983 680 0
-9438 -680 3983 0
-3984 9438 0
-3984 699 0
-9438 -699 3984 0
-3985 9438 0
-3985 717 0
-9438 -717 3985 0
-3986 9438 0
-3986 734 0
-9438 -734 3986 0
-3987 9438 0
-3987 750 0
-9438 -750 3987 0
-3988 9438 0
-3988 765 0
-9438 -765 3988 0
-3989 9438 0
-3989 779 0
-9438 -779 3989 0
-3990 9438 0
-3990 792 0
-9438 -792 3990 0
-3991 9438 0
-3991 805 0
-9438 -805 3991 0
-3992 9438 0
-3992 806 0
-9438 -806 3992 0
-3993 9438 0
-3993 807 0
-9438 -807 3993 0
-3994 9438 0
-3994 808 0
-9438 -808 3994 0
-3995 9438 0
-3995 809 0
-9438 -809 3995 0
-3996 9438 0
-3996 810 0
-9438 -810 3996 0
-3997 9438 0
-3997 811 0
-9438 -811 3997 0
-3998 9438 0
-3998 812 0
-9438 -812 3998 0
-3999 9438 0
-3999 813 0
-9438 -813 3999 0
-4000 9438 0
-4000 814 0
-9438 -814 4000 0
-4001 9438 0
-4001 815 0
-9438 -815 4001 0
-4002 9438 0
-4002 816 0
-9438 -816 4002 0
-4003 9439 0
-4003 681 0
-9439 -681 4003 0
-4004 9439 0
-4004 700 0
-9439 -700 4004 0
-4005 9439 0
-4005 718 0
-9439 -718 4005 0
-4006 9439 0
-4006 735 0
-9439 -735 4006 0
-4007 9439 0
-4007 751 0
-9439 -751 4007 0
-4008 9439 0
-4008 766 0
-9439 -766 4008 0
-4009 9439 0
-4009 780 0
-9439 -780 4009 0
-4010 9439 0
-4010 793 0
-9439 -793 4010 0
-4011 9439 0
-4011 805 0
-9439 -805 4011 0
-4012 9439 0
-4012 817 0
-9439 -817 4012 0
-4013 9439 0
-4013 818 0
-9439 -818 4013 0
-4014 9439 0
-4014 819 0
-9439 -819 4014 0
-4015 9439 0
-4015 820 0
-9439 -820 4015 0
-4016 9439 0
-4016 821 0
-9439 -821 4016 0
-4017 9439 0
-4017 822 0
-9439 -822 4017 0
-4018 9439 0
-4018 823 0
-9439 -823 4018 0
-4019 9439 0
-4019 824 0
-9439 -824 4019 0
-4020 9439 0
-4020 825 0
-9439 -825 4020 0
-4021 9439 0
-4021 826 0
-9439 -826 4021 0
-4022 9439 0
-4022 827 0
-9439 -827 4022 0
-4023 9440 0
-4023 682 0
-9440 -682 4023 0
-4024 9440 0
-4024 701 0
-9440 -701 4024 0
-4025 9440 0
-4025 719 0
-9440 -719 4025 0
-4026 9440 0
-4026 736 0
-9440 -736 4026 0
-4027 9440 0
-4027 752 0
-9440 -752 4027 0
-4028 9440 0
-4028 767 0
-9440 -767 4028 0
-4029 9440 0
-4029 781 0
-9440 -781 4029 0
-4030 9440 0
-4030 794 0
-9440 -794 4030 0
-4031 9440 0
-4031 806 0
-9440 -806 4031 0
-4032 9440 0
-4032 817 0
-9440 -817 4032 0
-4033 9440 0
-4033 828 0
-9440 -828 4033 0
-4034 9440 0
-4034 829 0
-9440 -829 4034 0
-4035 9440 0
-4035 830 0
-9440 -830 4035 0
-4036 9440 0
-4036 831 0
-9440 -831 4036 0
-4037 9440 0
-4037 832 0
-9440 -832 4037 0
-4038 9440 0
-4038 833 0
-9440 -833 4038 0
-4039 9440 0
-4039 834 0
-9440 -834 4039 0
-4040 9440 0
-4040 835 0
-9440 -835 4040 0
-4041 9440 0
-4041 836 0
-9440 -836 4041 0
-4042 9440 0
-4042 837 0
-9440 -837 4042 0
-4043 9441 0
-4043 683 0
-9441 -683 4043 0
-4044 9441 0
-4044 702 0
-9441 -702 4044 0
-4045 9441 0
-4045 720 0
-9441 -720 4045 0
-4046 9441 0
-4046 737 0
-9441 -737 4046 0
-4047 9441 0
-4047 753 0
-9441 -753 4047 0
-4048 9441 0
-4048 768 0
-9441 -768 4048 0
-4049 9441 0
-4049 782 0
-9441 -782 4049 0
-4050 9441 0
-4050 795 0
-9441 -795 4050 0
-4051 9441 0
-4051 807 0
-9441 -807 4051 0
-4052 9441 0
-4052 818 0
-9441 -818 4052 0
-4053 9441 0
-4053 828 0
-9441 -828 4053 0
-4054 9441 0
-4054 838 0
-9441 -838 4054 0
-4055 9441 0
-4055 839 0
-9441 -839 4055 0
-4056 9441 0
-4056 840 0
-9441 -840 4056 0
-4057 9441 0
-4057 841 0
-9441 -841 4057 0
-4058 9441 0
-4058 842 0
-9441 -842 4058 0
-4059 9441 0
-4059 843 0
-9441 -843 4059 0
-4060 9441 0
-4060 844 0
-9441 -844 4060 0
-4061 9441 0
-4061 845 0
-9441 -845 4061 0
-4062 9441 0
-4062 846 0
-9441 -846 4062 0
-4063 9442 0
-4063 684 0
-9442 -684 4063 0
-4064 9442 0
-4064 703 0
-9442 -703 4064 0
-4065 9442 0
-4065 721 0
-9442 -721 4065 0
-4066 9442 0
-4066 738 0
-9442 -738 4066 0
-4067 9442 0
-4067 754 0
-9442 -754 4067 0
-4068 9442 0
-4068 769 0
-9442 -769 4068 0
-4069 9442 0
-4069 783 0
-9442 -783 4069 0
-4070 9442 0
-4070 796 0
-9442 -796 4070 0
-4071 9442 0
-4071 808 0
-9442 -808 4071 0
-4072 9442 0
-4072 819 0
-9442 -819 4072 0
-4073 9442 0
-4073 829 0
-9442 -829 4073 0
-4074 9442 0
-4074 838 0
-9442 -838 4074 0
-4075 9442 0
-4075 847 0
-9442 -847 4075 0
-4076 9442 0
-4076 848 0
-9442 -848 4076 0
-4077 9442 0
-4077 849 0
-9442 -849 4077 0
-4078 9442 0
-4078 850 0
-9442 -850 4078 0
-4079 9442 0
-4079 851 0
-9442 -851 4079 0
-4080 9442 0
-4080 852 0
-9442 -852 4080 0
-4081 9442 0
-4081 853 0
-9442 -853 4081 0
-4082 9442 0
-4082 854 0
-9442 -854 4082 0
-4083 9443 0
-4083 685 0
-9443 -685 4083 0
-4084 9443 0
-4084 704 0
-9443 -704 4084 0
-4085 9443 0
-4085 722 0
-9443 -722 4085 0
-4086 9443 0
-4086 739 0
-9443 -739 4086 0
-4087 9443 0
-4087 755 0
-9443 -755 4087 0
-4088 9443 0
-4088 770 0
-9443 -770 4088 0
-4089 9443 0
-4089 784 0
-9443 -784 4089 0
-4090 9443 0
-4090 797 0
-9443 -797 4090 0
-4091 9443 0
-4091 809 0
-9443 -809 4091 0
-4092 9443 0
-4092 820 0
-9443 -820 4092 0
-4093 9443 0
-4093 830 0
-9443 -830 4093 0
-4094 9443 0
-4094 839 0
-9443 -839 4094 0
-4095 9443 0
-4095 847 0
-9443 -847 4095 0
-4096 9443 0
-4096 855 0
-9443 -855 4096 0
-4097 9443 0
-4097 856 0
-9443 -856 4097 0
-4098 9443 0
-4098 857 0
-9443 -857 4098 0
-4099 9443 0
-4099 858 0
-9443 -858 4099 0
-4100 9443 0
-4100 859 0
-9443 -859 4100 0
-4101 9443 0
-4101 860 0
-9443 -860 4101 0
-4102 9443 0
-4102 861 0
-9443 -861 4102 0
-4103 9444 0
-4103 686 0
-9444 -686 4103 0
-4104 9444 0
-4104 705 0
-9444 -705 4104 0
-4105 9444 0
-4105 723 0
-9444 -723 4105 0
-4106 9444 0
-4106 740 0
-9444 -740 4106 0
-4107 9444 0
-4107 756 0
-9444 -756 4107 0
-4108 9444 0
-4108 771 0
-9444 -771 4108 0
-4109 9444 0
-4109 785 0
-9444 -785 4109 0
-4110 9444 0
-4110 798 0
-9444 -798 4110 0
-4111 9444 0
-4111 810 0
-9444 -810 4111 0
-4112 9444 0
-4112 821 0
-9444 -821 4112 0
-4113 9444 0
-4113 831 0
-9444 -831 4113 0
-4114 9444 0
-4114 840 0
-9444 -840 4114 0
-4115 9444 0
-4115 848 0
-9444 -848 4115 0
-4116 9444 0
-4116 855 0
-9444 -855 4116 0
-4117 9444 0
-4117 862 0
-9444 -862 4117 0
-4118 9444 0
-4118 863 0
-9444 -863 4118 0
-4119 9444 0
-4119 864 0
-9444 -864 4119 0
-4120 9444 0
-4120 865 0
-9444 -865 4120 0
-4121 9444 0
-4121 866 0
-9444 -866 4121 0
-4122 9444 0
-4122 867 0
-9444 -867 4122 0
-4123 9445 0
-4123 687 0
-9445 -687 4123 0
-4124 9445 0
-4124 706 0
-9445 -706 4124 0
-4125 9445 0
-4125 724 0
-9445 -724 4125 0
-4126 9445 0
-4126 741 0
-9445 -741 4126 0
-4127 9445 0
-4127 757 0
-9445 -757 4127 0
-4128 9445 0
-4128 772 0
-9445 -772 4128 0
-4129 9445 0
-4129 786 0
-9445 -786 4129 0
-4130 9445 0
-4130 799 0
-9445 -799 4130 0
-4131 9445 0
-4131 811 0
-9445 -811 4131 0
-4132 9445 0
-4132 822 0
-9445 -822 4132 0
-4133 9445 0
-4133 832 0
-9445 -832 4133 0
-4134 9445 0
-4134 841 0
-9445 -841 4134 0
-4135 9445 0
-4135 849 0
-9445 -849 4135 0
-4136 9445 0
-4136 856 0
-9445 -856 4136 0
-4137 9445 0
-4137 862 0
-9445 -862 4137 0
-4138 9445 0
-4138 868 0
-9445 -868 4138 0
-4139 9445 0
-4139 869 0
-9445 -869 4139 0
-4140 9445 0
-4140 870 0
-9445 -870 4140 0
-4141 9445 0
-4141 871 0
-9445 -871 4141 0
-4142 9445 0
-4142 872 0
-9445 -872 4142 0
-4143 9446 0
-4143 688 0
-9446 -688 4143 0
-4144 9446 0
-4144 707 0
-9446 -707 4144 0
-4145 9446 0
-4145 725 0
-9446 -725 4145 0
-4146 9446 0
-4146 742 0
-9446 -742 4146 0
-4147 9446 0
-4147 758 0
-9446 -758 4147 0
-4148 9446 0
-4148 773 0
-9446 -773 4148 0
-4149 9446 0
-4149 787 0
-9446 -787 4149 0
-4150 9446 0
-4150 800 0
-9446 -800 4150 0
-4151 9446 0
-4151 812 0
-9446 -812 4151 0
-4152 9446 0
-4152 823 0
-9446 -823 4152 0
-4153 9446 0
-4153 833 0
-9446 -833 4153 0
-4154 9446 0
-4154 842 0
-9446 -842 4154 0
-4155 9446 0
-4155 850 0
-9446 -850 4155 0
-4156 9446 0
-4156 857 0
-9446 -857 4156 0
-4157 9446 0
-4157 863 0
-9446 -863 4157 0
-4158 9446 0
-4158 868 0
-9446 -868 4158 0
-4159 9446 0
-4159 873 0
-9446 -873 4159 0
-4160 9446 0
-4160 874 0
-9446 -874 4160 0
-4161 9446 0
-4161 875 0
-9446 -875 4161 0
-4162 9446 0
-4162 876 0
-9446 -876 4162 0
-4163 9447 0
-4163 689 0
-9447 -689 4163 0
-4164 9447 0
-4164 708 0
-9447 -708 4164 0
-4165 9447 0
-4165 726 0
-9447 -726 4165 0
-4166 9447 0
-4166 743 0
-9447 -743 4166 0
-4167 9447 0
-4167 759 0
-9447 -759 4167 0
-4168 9447 0
-4168 774 0
-9447 -774 4168 0
-4169 9447 0
-4169 788 0
-9447 -788 4169 0
-4170 9447 0
-4170 801 0
-9447 -801 4170 0
-4171 9447 0
-4171 813 0
-9447 -813 4171 0
-4172 9447 0
-4172 824 0
-9447 -824 4172 0
-4173 9447 0
-4173 834 0
-9447 -834 4173 0
-4174 9447 0
-4174 843 0
-9447 -843 4174 0
-4175 9447 0
-4175 851 0
-9447 -851 4175 0
-4176 9447 0
-4176 858 0
-9447 -858 4176 0
-4177 9447 0
-4177 864 0
-9447 -864 4177 0
-4178 9447 0
-4178 869 0
-9447 -869 4178 0
-4179 9447 0
-4179 873 0
-9447 -873 4179 0
-4180 9447 0
-4180 877 0
-9447 -877 4180 0
-4181 9447 0
-4181 878 0
-9447 -878 4181 0
-4182 9447 0
-4182 879 0
-9447 -879 4182 0
-4183 9448 0
-4183 690 0
-9448 -690 4183 0
-4184 9448 0
-4184 709 0
-9448 -709 4184 0
-4185 9448 0
-4185 727 0
-9448 -727 4185 0
-4186 9448 0
-4186 744 0
-9448 -744 4186 0
-4187 9448 0
-4187 760 0
-9448 -760 4187 0
-4188 9448 0
-4188 775 0
-9448 -775 4188 0
-4189 9448 0
-4189 789 0
-9448 -789 4189 0
-4190 9448 0
-4190 802 0
-9448 -802 4190 0
-4191 9448 0
-4191 814 0
-9448 -814 4191 0
-4192 9448 0
-4192 825 0
-9448 -825 4192 0
-4193 9448 0
-4193 835 0
-9448 -835 4193 0
-4194 9448 0
-4194 844 0
-9448 -844 4194 0
-4195 9448 0
-4195 852 0
-9448 -852 4195 0
-4196 9448 0
-4196 859 0
-9448 -859 4196 0
-4197 9448 0
-4197 865 0
-9448 -865 4197 0
-4198 9448 0
-4198 870 0
-9448 -870 4198 0
-4199 9448 0
-4199 874 0
-9448 -874 4199 0
-4200 9448 0
-4200 877 0
-9448 -877 4200 0
-4201 9448 0
-4201 880 0
-9448 -880 4201 0
-4202 9448 0
-4202 881 0
-9448 -881 4202 0
-4203 9449 0
-4203 691 0
-9449 -691 4203 0
-4204 9449 0
-4204 710 0
-9449 -710 4204 0
-4205 9449 0
-4205 728 0
-9449 -728 4205 0
-4206 9449 0
-4206 745 0
-9449 -745 4206 0
-4207 9449 0
-4207 761 0
-9449 -761 4207 0
-4208 9449 0
-4208 776 0
-9449 -776 4208 0
-4209 9449 0
-4209 790 0
-9449 -790 4209 0
-4210 9449 0
-4210 803 0
-9449 -803 4210 0
-4211 9449 0
-4211 815 0
-9449 -815 4211 0
-4212 9449 0
-4212 826 0
-9449 -826 4212 0
-4213 9449 0
-4213 836 0
-9449 -836 4213 0
-4214 9449 0
-4214 845 0
-9449 -845 4214 0
-4215 9449 0
-4215 853 0
-9449 -853 4215 0
-4216 9449 0
-4216 860 0
-9449 -860 4216 0
-4217 9449 0
-4217 866 0
-9449 -866 4217 0
-4218 9449 0
-4218 871 0
-9449 -871 4218 0
-4219 9449 0
-4219 875 0
-9449 -875 4219 0
-4220 9449 0
-4220 878 0
-9449 -878 4220 0
-4221 9449 0
-4221 880 0
-9449 -880 4221 0
-4222 9449 0
-4222 882 0
-9449 -882 4222 0
-4223 9450 0
-4223 692 0
-9450 -692 4223 0
-4224 9450 0
-4224 711 0
-9450 -711 4224 0
-4225 9450 0
-4225 729 0
-9450 -729 4225 0
-4226 9450 0
-4226 746 0
-9450 -746 4226 0
-4227 9450 0
-4227 762 0
-9450 -762 4227 0
-4228 9450 0
-4228 777 0
-9450 -777 4228 0
-4229 9450 0
-4229 791 0
-9450 -791 4229 0
-4230 9450 0
-4230 804 0
-9450 -804 4230 0
-4231 9450 0
-4231 816 0
-9450 -816 4231 0
-4232 9450 0
-4232 827 0
-9450 -827 4232 0
-4233 9450 0
-4233 837 0
-9450 -837 4233 0
-4234 9450 0
-4234 846 0
-9450 -846 4234 0
-4235 9450 0
-4235 854 0
-9450 -854 4235 0
-4236 9450 0
-4236 861 0
-9450 -861 4236 0
-4237 9450 0
-4237 867 0
-9450 -867 4237 0
-4238 9450 0
-4238 872 0
-9450 -872 4238 0
-4239 9450 0
-4239 876 0
-9450 -876 4239 0
-4240 9450 0
-4240 879 0
-9450 -879 4240 0
-4241 9450 0
-4241 881 0
-9450 -881 4241 0
-4242 9450 0
-4242 882 0
-9450 -882 4242 0
-4243 9451 0
-4243 673 0
-9451 -673 4243 0
-4244 9451 0
-4244 674 0
-9451 -674 4244 0
-4245 9451 0
-4245 675 0
-9451 -675 4245 0
-4246 9451 0
-4246 676 0
-9451 -676 4246 0
-4247 9451 0
-4247 677 0
-9451 -677 4247 0
-4248 9451 0
-4248 678 0
-9451 -678 4248 0
-4249 9451 0
-4249 679 0
-9451 -679 4249 0
-4250 9451 0
-4250 680 0
-9451 -680 4250 0
-4251 9451 0
-4251 681 0
-9451 -681 4251 0
-4252 9451 0
-4252 682 0
-9451 -682 4252 0
-4253 9451 0
-4253 683 0
-9451 -683 4253 0
-4254 9451 0
-4254 684 0
-9451 -684 4254 0
-4255 9451 0
-4255 685 0
-9451 -685 4255 0
-4256 9451 0
-4256 686 0
-9451 -686 4256 0
-4257 9451 0
-4257 687 0
-9451 -687 4257 0
-4258 9451 0
-4258 688 0
-9451 -688 4258 0
-4259 9451 0
-4259 689 0
-9451 -689 4259 0
-4260 9451 0
-4260 690 0
-9451 -690 4260 0
-4261 9451 0
-4261 691 0
-9451 -691 4261 0
-4262 9451 0
-4262 692 0
-9451 -692 4262 0
-4263 9452 0
-4263 673 0
-9452 -673 4263 0
-4264 9452 0
-4264 693 0
-9452 -693 4264 0
-4265 9452 0
-4265 694 0
-9452 -694 4265 0
-4266 9452 0
-4266 695 0
-9452 -695 4266 0
-4267 9452 0
-4267 696 0
-9452 -696 4267 0
-4268 9452 0
-4268 697 0
-9452 -697 4268 0
-4269 9452 0
-4269 698 0
-9452 -698 4269 0
-4270 9452 0
-4270 699 0
-9452 -699 4270 0
-4271 9452 0
-4271 700 0
-9452 -700 4271 0
-4272 9452 0
-4272 701 0
-9452 -701 4272 0
-4273 9452 0
-4273 702 0
-9452 -702 4273 0
-4274 9452 0
-4274 703 0
-9452 -703 4274 0
-4275 9452 0
-4275 704 0
-9452 -704 4275 0
-4276 9452 0
-4276 705 0
-9452 -705 4276 0
-4277 9452 0
-4277 706 0
-9452 -706 4277 0
-4278 9452 0
-4278 707 0
-9452 -707 4278 0
-4279 9452 0
-4279 708 0
-9452 -708 4279 0
-4280 9452 0
-4280 709 0
-9452 -709 4280 0
-4281 9452 0
-4281 710 0
-9452 -710 4281 0
-4282 9452 0
-4282 711 0
-9452 -711 4282 0
-4283 9453 0
-4283 674 0
-9453 -674 4283 0
-4284 9453 0
-4284 693 0
-9453 -693 4284 0
-4285 9453 0
-4285 712 0
-9453 -712 4285 0
-4286 9453 0
-4286 713 0
-9453 -713 4286 0
-4287 9453 0
-4287 714 0
-9453 -714 4287 0
-4288 9453 0
-4288 715 0
-9453 -715 4288 0
-4289 9453 0
-4289 716 0
-9453 -716 4289 0
-4290 9453 0
-4290 717 0
-9453 -717 4290 0
-4291 9453 0
-4291 718 0
-9453 -718 4291 0
-4292 9453 0
-4292 719 0
-9453 -719 4292 0
-4293 9453 0
-4293 720 0
-9453 -720 4293 0
-4294 9453 0
-4294 721 0
-9453 -721 4294 0
-4295 9453 0
-4295 722 0
-9453 -722 4295 0
-4296 9453 0
-4296 723 0
-9453 -723 4296 0
-4297 9453 0
-4297 724 0
-9453 -724 4297 0
-4298 9453 0
-4298 725 0
-9453 -725 4298 0
-4299 9453 0
-4299 726 0
-9453 -726 4299 0
-4300 9453 0
-4300 727 0
-9453 -727 4300 0
-4301 9453 0
-4301 728 0
-9453 -728 4301 0
-4302 9453 0
-4302 729 0
-9453 -729 4302 0
-4303 9454 0
-4303 675 0
-9454 -675 4303 0
-4304 9454 0
-4304 694 0
-9454 -694 4304 0
-4305 9454 0
-4305 712 0
-9454 -712 4305 0
-4306 9454 0
-4306 730 0
-9454 -730 4306 0
-4307 9454 0
-4307 731 0
-9454 -731 4307 0
-4308 9454 0
-4308 732 0
-9454 -732 4308 0
-4309 9454 0
-4309 733 0
-9454 -733 4309 0
-4310 9454 0
-4310 734 0
-9454 -734 4310 0
-4311 9454 0
-4311 735 0
-9454 -735 4311 0
-4312 9454 0
-4312 736 0
-9454 -736 4312 0
-4313 9454 0
-4313 737 0
-9454 -737 4313 0
-4314 9454 0
-4314 738 0
-9454 -738 4314 0
-4315 9454 0
-4315 739 0
-9454 -739 4315 0
-4316 9454 0
-4316 740 0
-9454 -740 4316 0
-4317 9454 0
-4317 741 0
-9454 -741 4317 0
-4318 9454 0
-4318 742 0
-9454 -742 4318 0
-4319 9454 0
-4319 743 0
-9454 -743 4319 0
-4320 9454 0
-4320 744 0
-9454 -744 4320 0
-4321 9454 0
-4321 745 0
-9454 -745 4321 0
-4322 9454 0
-4322 746 0
-9454 -746 4322 0
-4323 9455 0
-4323 676 0
-9455 -676 4323 0
-4324 9455 0
-4324 695 0
-9455 -695 4324 0
-4325 9455 0
-4325 713 0
-9455 -713 4325 0
-4326 9455 0
-4326 730 0
-9455 -730 4326 0
-4327 9455 0
-4327 747 0
-9455 -747 4327 0
-4328 9455 0
-4328 748 0
-9455 -748 4328 0
-4329 9455 0
-4329 749 0
-9455 -749 4329 0
-4330 9455 0
-4330 750 0
-9455 -750 4330 0
-4331 9455 0
-4331 751 0
-9455 -751 4331 0
-4332 9455 0
-4332 752 0
-9455 -752 4332 0
-4333 9455 0
-4333 753 0
-9455 -753 4333 0
-4334 9455 0
-4334 754 0
-9455 -754 4334 0
-4335 9455 0
-4335 755 0
-9455 -755 4335 0
-4336 9455 0
-4336 756 0
-9455 -756 4336 0
-4337 9455 0
-4337 757 0
-9455 -757 4337 0
-4338 9455 0
-4338 758 0
-9455 -758 4338 0
-4339 9455 0
-4339 759 0
-9455 -759 4339 0
-4340 9455 0
-4340 760 0
-9455 -760 4340 0
-4341 9455 0
-4341 761 0
-9455 -761 4341 0
-4342 9455 0
-4342 762 0
-9455 -762 4342 0
-4343 9456 0
-4343 677 0
-9456 -677 4343 0
-4344 9456 0
-4344 696 0
-9456 -696 4344 0
-4345 9456 0
-4345 714 0
-9456 -714 4345 0
-4346 9456 0
-4346 731 0
-9456 -731 4346 0
-4347 9456 0
-4347 747 0
-9456 -747 4347 0
-4348 9456 0
-4348 763 0
-9456 -763 4348 0
-4349 9456 0
-4349 764 0
-9456 -764 4349 0
-4350 9456 0
-4350 765 0
-9456 -765 4350 0
-4351 9456 0
-4351 766 0
-9456 -766 4351 0
-4352 9456 0
-4352 767 0
-9456 -767 4352 0
-4353 9456 0
-4353 768 0
-9456 -768 4353 0
-4354 9456 0
-4354 769 0
-9456 -769 4354 0
-4355 9456 0
-4355 770 0
-9456 -770 4355 0
-4356 9456 0
-4356 771 0
-9456 -771 4356 0
-4357 9456 0
-4357 772 0
-9456 -772 4357 0
-4358 9456 0
-4358 773 0
-9456 -773 4358 0
-4359 9456 0
-4359 774 0
-9456 -774 4359 0
-4360 9456 0
-4360 775 0
-9456 -775 4360 0
-4361 9456 0
-4361 776 0
-9456 -776 4361 0
-4362 9456 0
-4362 777 0
-9456 -777 4362 0
-4363 9457 0
-4363 678 0
-9457 -678 4363 0
-4364 9457 0
-4364 697 0
-9457 -697 4364 0
-4365 9457 0
-4365 715 0
-9457 -715 4365 0
-4366 9457 0
-4366 732 0
-9457 -732 4366 0
-4367 9457 0
-4367 748 0
-9457 -748 4367 0
-4368 9457 0
-4368 763 0
-9457 -763 4368 0
-4369 9457 0
-4369 778 0
-9457 -778 4369 0
-4370 9457 0
-4370 779 0
-9457 -779 4370 0
-4371 9457 0
-4371 780 0
-9457 -780 4371 0
-4372 9457 0
-4372 781 0
-9457 -781 4372 0
-4373 9457 0
-4373 782 0
-9457 -782 4373 0
-4374 9457 0
-4374 783 0
-9457 -783 4374 0
-4375 9457 0
-4375 784 0
-9457 -784 4375 0
-4376 9457 0
-4376 785 0
-9457 -785 4376 0
-4377 9457 0
-4377 786 0
-9457 -786 4377 0
-4378 9457 0
-4378 787 0
-9457 -787 4378 0
-4379 9457 0
-4379 788 0
-9457 -788 4379 0
-4380 9457 0
-4380 789 0
-9457 -789 4380 0
-4381 9457 0
-4381 790 0
-9457 -790 4381 0
-4382 9457 0
-4382 791 0
-9457 -791 4382 0
-4383 9458 0
-4383 679 0
-9458 -679 4383 0
-4384 9458 0
-4384 698 0
-9458 -698 4384 0
-4385 9458 0
-4385 716 0
-9458 -716 4385 0
-4386 9458 0
-4386 733 0
-9458 -733 4386 0
-4387 9458 0
-4387 749 0
-9458 -749 4387 0
-4388 9458 0
-4388 764 0
-9458 -764 4388 0
-4389 9458 0
-4389 778 0
-9458 -778 4389 0
-4390 9458 0
-4390 792 0
-9458 -792 4390 0
-4391 9458 0
-4391 793 0
-9458 -793 4391 0
-4392 9458 0
-4392 794 0
-9458 -794 4392 0
-4393 9458 0
-4393 795 0
-9458 -795 4393 0
-4394 9458 0
-4394 796 0
-9458 -796 4394 0
-4395 9458 0
-4395 797 0
-9458 -797 4395 0
-4396 9458 0
-4396 798 0
-9458 -798 4396 0
-4397 9458 0
-4397 799 0
-9458 -799 4397 0
-4398 9458 0
-4398 800 0
-9458 -800 4398 0
-4399 9458 0
-4399 801 0
-9458 -801 4399 0
-4400 9458 0
-4400 802 0
-9458 -802 4400 0
-4401 9458 0
-4401 803 0
-9458 -803 4401 0
-4402 9458 0
-4402 804 0
-9458 -804 4402 0
-4403 9459 0
-4403 680 0
-9459 -680 4403 0
-4404 9459 0
-4404 699 0
-9459 -699 4404 0
-4405 9459 0
-4405 717 0
-9459 -717 4405 0
-4406 9459 0
-4406 734 0
-9459 -734 4406 0
-4407 9459 0
-4407 750 0
-9459 -750 4407 0
-4408 9459 0
-4408 765 0
-9459 -765 4408 0
-4409 9459 0
-4409 779 0
-9459 -779 4409 0
-4410 9459 0
-4410 792 0
-9459 -792 4410 0
-4411 9459 0
-4411 805 0
-9459 -805 4411 0
-4412 9459 0
-4412 806 0
-9459 -806 4412 0
-4413 9459 0
-4413 807 0
-9459 -807 4413 0
-4414 9459 0
-4414 808 0
-9459 -808 4414 0
-4415 9459 0
-4415 809 0
-9459 -809 4415 0
-4416 9459 0
-4416 810 0
-9459 -810 4416 0
-4417 9459 0
-4417 811 0
-9459 -811 4417 0
-4418 9459 0
-4418 812 0
-9459 -812 4418 0
-4419 9459 0
-4419 813 0
-9459 -813 4419 0
-4420 9459 0
-4420 814 0
-9459 -814 4420 0
-4421 9459 0
-4421 815 0
-9459 -815 4421 0
-4422 9459 0
-4422 816 0
-9459 -816 4422 0
-4423 9460 0
-4423 681 0
-9460 -681 4423 0
-4424 9460 0
-4424 700 0
-9460 -700 4424 0
-4425 9460 0
-4425 718 0
-9460 -718 4425 0
-4426 9460 0
-4426 735 0
-9460 -735 4426 0
-4427 9460 0
-4427 751 0
-9460 -751 4427 0
-4428 9460 0
-4428 766 0
-9460 -766 4428 0
-4429 9460 0
-4429 780 0
-9460 -780 4429 0
-4430 9460 0
-4430 793 0
-9460 -793 4430 0
-4431 9460 0
-4431 805 0
-9460 -805 4431 0
-4432 9460 0
-4432 817 0
-9460 -817 4432 0
-4433 9460 0
-4433 818 0
-9460 -818 4433 0
-4434 9460 0
-4434 819 0
-9460 -819 4434 0
-4435 9460 0
-4435 820 0
-9460 -820 4435 0
-4436 9460 0
-4436 821 0
-9460 -821 4436 0
-4437 9460 0
-4437 822 0
-9460 -822 4437 0
-4438 9460 0
-4438 823 0
-9460 -823 4438 0
-4439 9460 0
-4439 824 0
-9460 -824 4439 0
-4440 9460 0
-4440 825 0
-9460 -825 4440 0
-4441 9460 0
-4441 826 0
-9460 -826 4441 0
-4442 9460 0
-4442 827 0
-9460 -827 4442 0
-4443 9461 0
-4443 682 0
-9461 -682 4443 0
-4444 9461 0
-4444 701 0
-9461 -701 4444 0
-4445 9461 0
-4445 719 0
-9461 -719 4445 0
-4446 9461 0
-4446 736 0
-9461 -736 4446 0
-4447 9461 0
-4447 752 0
-9461 -752 4447 0
-4448 9461 0
-4448 767 0
-9461 -767 4448 0
-4449 9461 0
-4449 781 0
-9461 -781 4449 0
-4450 9461 0
-4450 794 0
-9461 -794 4450 0
-4451 9461 0
-4451 806 0
-9461 -806 4451 0
-4452 9461 0
-4452 817 0
-9461 -817 4452 0
-4453 9461 0
-4453 828 0
-9461 -828 4453 0
-4454 9461 0
-4454 829 0
-9461 -829 4454 0
-4455 9461 0
-4455 830 0
-9461 -830 4455 0
-4456 9461 0
-4456 831 0
-9461 -831 4456 0
-4457 9461 0
-4457 832 0
-9461 -832 4457 0
-4458 9461 0
-4458 833 0
-9461 -833 4458 0
-4459 9461 0
-4459 834 0
-9461 -834 4459 0
-4460 9461 0
-4460 835 0
-9461 -835 4460 0
-4461 9461 0
-4461 836 0
-9461 -836 4461 0
-4462 9461 0
-4462 837 0
-9461 -837 4462 0
-4463 9462 0
-4463 683 0
-9462 -683 4463 0
-4464 9462 0
-4464 702 0
-9462 -702 4464 0
-4465 9462 0
-4465 720 0
-9462 -720 4465 0
-4466 9462 0
-4466 737 0
-9462 -737 4466 0
-4467 9462 0
-4467 753 0
-9462 -753 4467 0
-4468 9462 0
-4468 768 0
-9462 -768 4468 0
-4469 9462 0
-4469 782 0
-9462 -782 4469 0
-4470 9462 0
-4470 795 0
-9462 -795 4470 0
-4471 9462 0
-4471 807 0
-9462 -807 4471 0
-4472 9462 0
-4472 818 0
-9462 -818 4472 0
-4473 9462 0
-4473 828 0
-9462 -828 4473 0
-4474 9462 0
-4474 838 0
-9462 -838 4474 0
-4475 9462 0
-4475 839 0
-9462 -839 4475 0
-4476 9462 0
-4476 840 0
-9462 -840 4476 0
-4477 9462 0
-4477 841 0
-9462 -841 4477 0
-4478 9462 0
-4478 842 0
-9462 -842 4478 0
-4479 9462 0
-4479 843 0
-9462 -843 4479 0
-4480 9462 0
-4480 844 0
-9462 -844 4480 0
-4481 9462 0
-4481 845 0
-9462 -845 4481 0
-4482 9462 0
-4482 846 0
-9462 -846 4482 0
-4483 9463 0
-4483 684 0
-9463 -684 4483 0
-4484 9463 0
-4484 703 0
-9463 -703 4484 0
-4485 9463 0
-4485 721 0
-9463 -721 4485 0
-4486 9463 0
-4486 738 0
-9463 -738 4486 0
-4487 9463 0
-4487 754 0
-9463 -754 4487 0
-4488 9463 0
-4488 769 0
-9463 -769 4488 0
-4489 9463 0
-4489 783 0
-9463 -783 4489 0
-4490 9463 0
-4490 796 0
-9463 -796 4490 0
-4491 9463 0
-4491 808 0
-9463 -808 4491 0
-4492 9463 0
-4492 819 0
-9463 -819 4492 0
-4493 9463 0
-4493 829 0
-9463 -829 4493 0
-4494 9463 0
-4494 838 0
-9463 -838 4494 0
-4495 9463 0
-4495 847 0
-9463 -847 4495 0
-4496 9463 0
-4496 848 0
-9463 -848 4496 0
-4497 9463 0
-4497 849 0
-9463 -849 4497 0
-4498 9463 0
-4498 850 0
-9463 -850 4498 0
-4499 9463 0
-4499 851 0
-9463 -851 4499 0
-4500 9463 0
-4500 852 0
-9463 -852 4500 0
-4501 9463 0
-4501 853 0
-9463 -853 4501 0
-4502 9463 0
-4502 854 0
-9463 -854 4502 0
-4503 9464 0
-4503 685 0
-9464 -685 4503 0
-4504 9464 0
-4504 704 0
-9464 -704 4504 0
-4505 9464 0
-4505 722 0
-9464 -722 4505 0
-4506 9464 0
-4506 739 0
-9464 -739 4506 0
-4507 9464 0
-4507 755 0
-9464 -755 4507 0
-4508 9464 0
-4508 770 0
-9464 -770 4508 0
-4509 9464 0
-4509 784 0
-9464 -784 4509 0
-4510 9464 0
-4510 797 0
-9464 -797 4510 0
-4511 9464 0
-4511 809 0
-9464 -809 4511 0
-4512 9464 0
-4512 820 0
-9464 -820 4512 0
-4513 9464 0
-4513 830 0
-9464 -830 4513 0
-4514 9464 0
-4514 839 0
-9464 -839 4514 0
-4515 9464 0
-4515 847 0
-9464 -847 4515 0
-4516 9464 0
-4516 855 0
-9464 -855 4516 0
-4517 9464 0
-4517 856 0
-9464 -856 4517 0
-4518 9464 0
-4518 857 0
-9464 -857 4518 0
-4519 9464 0
-4519 858 0
-9464 -858 4519 0
-4520 9464 0
-4520 859 0
-9464 -859 4520 0
-4521 9464 0
-4521 860 0
-9464 -860 4521 0
-4522 9464 0
-4522 861 0
-9464 -861 4522 0
-4523 9465 0
-4523 686 0
-9465 -686 4523 0
-4524 9465 0
-4524 705 0
-9465 -705 4524 0
-4525 9465 0
-4525 723 0
-9465 -723 4525 0
-4526 9465 0
-4526 740 0
-9465 -740 4526 0
-4527 9465 0
-4527 756 0
-9465 -756 4527 0
-4528 9465 0
-4528 771 0
-9465 -771 4528 0
-4529 9465 0
-4529 785 0
-9465 -785 4529 0
-4530 9465 0
-4530 798 0
-9465 -798 4530 0
-4531 9465 0
-4531 810 0
-9465 -810 4531 0
-4532 9465 0
-4532 821 0
-9465 -821 4532 0
-4533 9465 0
-4533 831 0
-9465 -831 4533 0
-4534 9465 0
-4534 840 0
-9465 -840 4534 0
-4535 9465 0
-4535 848 0
-9465 -848 4535 0
-4536 9465 0
-4536 855 0
-9465 -855 4536 0
-4537 9465 0
-4537 862 0
-9465 -862 4537 0
-4538 9465 0
-4538 863 0
-9465 -863 4538 0
-4539 9465 0
-4539 864 0
-9465 -864 4539 0
-4540 9465 0
-4540 865 0
-9465 -865 4540 0
-4541 9465 0
-4541 866 0
-9465 -866 4541 0
-4542 9465 0
-4542 867 0
-9465 -867 4542 0
-4543 9466 0
-4543 687 0
-9466 -687 4543 0
-4544 9466 0
-4544 706 0
-9466 -706 4544 0
-4545 9466 0
-4545 724 0
-9466 -724 4545 0
-4546 9466 0
-4546 741 0
-9466 -741 4546 0
-4547 9466 0
-4547 757 0
-9466 -757 4547 0
-4548 9466 0
-4548 772 0
-9466 -772 4548 0
-4549 9466 0
-4549 786 0
-9466 -786 4549 0
-4550 9466 0
-4550 799 0
-9466 -799 4550 0
-4551 9466 0
-4551 811 0
-9466 -811 4551 0
-4552 9466 0
-4552 822 0
-9466 -822 4552 0
-4553 9466 0
-4553 832 0
-9466 -832 4553 0
-4554 9466 0
-4554 841 0
-9466 -841 4554 0
-4555 9466 0
-4555 849 0
-9466 -849 4555 0
-4556 9466 0
-4556 856 0
-9466 -856 4556 0
-4557 9466 0
-4557 862 0
-9466 -862 4557 0
-4558 9466 0
-4558 868 0
-9466 -868 4558 0
-4559 9466 0
-4559 869 0
-9466 -869 4559 0
-4560 9466 0
-4560 870 0
-9466 -870 4560 0
-4561 9466 0
-4561 871 0
-9466 -871 4561 0
-4562 9466 0
-4562 872 0
-9466 -872 4562 0
-4563 9467 0
-4563 688 0
-9467 -688 4563 0
-4564 9467 0
-4564 707 0
-9467 -707 4564 0
-4565 9467 0
-4565 725 0
-9467 -725 4565 0
-4566 9467 0
-4566 742 0
-9467 -742 4566 0
-4567 9467 0
-4567 758 0
-9467 -758 4567 0
-4568 9467 0
-4568 773 0
-9467 -773 4568 0
-4569 9467 0
-4569 787 0
-9467 -787 4569 0
-4570 9467 0
-4570 800 0
-9467 -800 4570 0
-4571 9467 0
-4571 812 0
-9467 -812 4571 0
-4572 9467 0
-4572 823 0
-9467 -823 4572 0
-4573 9467 0
-4573 833 0
-9467 -833 4573 0
-4574 9467 0
-4574 842 0
-9467 -842 4574 0
-4575 9467 0
-4575 850 0
-9467 -850 4575 0
-4576 9467 0
-4576 857 0
-9467 -857 4576 0
-4577 9467 0
-4577 863 0
-9467 -863 4577 0
-4578 9467 0
-4578 868 0
-9467 -868 4578 0
-4579 9467 0
-4579 873 0
-9467 -873 4579 0
-4580 9467 0
-4580 874 0
-9467 -874 4580 0
-4581 9467 0
-4581 875 0
-9467 -875 4581 0
-4582 9467 0
-4582 876 0
-9467 -876 4582 0
-4583 9468 0
-4583 689 0
-9468 -689 4583 0
-4584 9468 0
-4584 708 0
-9468 -708 4584 0
-4585 9468 0
-4585 726 0
-9468 -726 4585 0
-4586 9468 0
-4586 743 0
-9468 -743 4586 0
-4587 9468 0
-4587 759 0
-9468 -759 4587 0
-4588 9468 0
-4588 774 0
-9468 -774 4588 0
-4589 9468 0
-4589 788 0
-9468 -788 4589 0
-4590 9468 0
-4590 801 0
-9468 -801 4590 0
-4591 9468 0
-4591 813 0
-9468 -813 4591 0
-4592 9468 0
-4592 824 0
-9468 -824 4592 0
-4593 9468 0
-4593 834 0
-9468 -834 4593 0
-4594 9468 0
-4594 843 0
-9468 -843 4594 0
-4595 9468 0
-4595 851 0
-9468 -851 4595 0
-4596 9468 0
-4596 858 0
-9468 -858 4596 0
-4597 9468 0
-4597 864 0
-9468 -864 4597 0
-4598 9468 0
-4598 869 0
-9468 -869 4598 0
-4599 9468 0
-4599 873 0
-9468 -873 4599 0
-4600 9468 0
-4600 877 0
-9468 -877 4600 0
-4601 9468 0
-4601 878 0
-9468 -878 4601 0
-4602 9468 0
-4602 879 0
-9468 -879 4602 0
-4603 9469 0
-4603 690 0
-9469 -690 4603 0
-4604 9469 0
-4604 709 0
-9469 -709 4604 0
-4605 9469 0
-4605 727 0
-9469 -727 4605 0
-4606 9469 0
-4606 744 0
-9469 -744 4606 0
-4607 9469 0
-4607 760 0
-9469 -760 4607 0
-4608 9469 0
-4608 775 0
-9469 -775 4608 0
-4609 9469 0
-4609 789 0
-9469 -789 4609 0
-4610 9469 0
-4610 802 0
-9469 -802 4610 0
-4611 9469 0
-4611 814 0
-9469 -814 4611 0
-4612 9469 0
-4612 825 0
-9469 -825 4612 0
-4613 9469 0
-4613 835 0
-9469 -835 4613 0
-4614 9469 0
-4614 844 0
-9469 -844 4614 0
-4615 9469 0
-4615 852 0
-9469 -852 4615 0
-4616 9469 0
-4616 859 0
-9469 -859 4616 0
-4617 9469 0
-4617 865 0
-9469 -865 4617 0
-4618 9469 0
-4618 870 0
-9469 -870 4618 0
-4619 9469 0
-4619 874 0
-9469 -874 4619 0
-4620 9469 0
-4620 877 0
-9469 -877 4620 0
-4621 9469 0
-4621 880 0
-9469 -880 4621 0
-4622 9469 0
-4622 881 0
-9469 -881 4622 0
-4623 9470 0
-4623 691 0
-9470 -691 4623 0
-4624 9470 0
-4624 710 0
-9470 -710 4624 0
-4625 9470 0
-4625 728 0
-9470 -728 4625 0
-4626 9470 0
-4626 745 0
-9470 -745 4626 0
-4627 9470 0
-4627 761 0
-9470 -761 4627 0
-4628 9470 0
-4628 776 0
-9470 -776 4628 0
-4629 9470 0
-4629 790 0
-9470 -790 4629 0
-4630 9470 0
-4630 803 0
-9470 -803 4630 0
-4631 9470 0
-4631 815 0
-9470 -815 4631 0
-4632 9470 0
-4632 826 0
-9470 -826 4632 0
-4633 9470 0
-4633 836 0
-9470 -836 4633 0
-4634 9470 0
-4634 845 0
-9470 -845 4634 0
-4635 9470 0
-4635 853 0
-9470 -853 4635 0
-4636 9470 0
-4636 860 0
-9470 -860 4636 0
-4637 9470 0
-4637 866 0
-9470 -866 4637 0
-4638 9470 0
-4638 871 0
-9470 -871 4638 0
-4639 9470 0
-4639 875 0
-9470 -875 4639 0
-4640 9470 0
-4640 878 0
-9470 -878 4640 0
-4641 9470 0
-4641 880 0
-9470 -880 4641 0
-4642 9470 0
-4642 882 0
-9470 -882 4642 0
-4643 9471 0
-4643 692 0
-9471 -692 4643 0
-4644 9471 0
-4644 711 0
-9471 -711 4644 0
-4645 9471 0
-4645 729 0
-9471 -729 4645 0
-4646 9471 0
-4646 746 0
-9471 -746 4646 0
-4647 9471 0
-4647 762 0
-9471 -762 4647 0
-4648 9471 0
-4648 777 0
-9471 -777 4648 0
-4649 9471 0
-4649 791 0
-9471 -791 4649 0
-4650 9471 0
-4650 804 0
-9471 -804 4650 0
-4651 9471 0
-4651 816 0
-9471 -816 4651 0
-4652 9471 0
-4652 827 0
-9471 -827 4652 0
-4653 9471 0
-4653 837 0
-9471 -837 4653 0
-4654 9471 0
-4654 846 0
-9471 -846 4654 0
-4655 9471 0
-4655 854 0
-9471 -854 4655 0
-4656 9471 0
-4656 861 0
-9471 -861 4656 0
-4657 9471 0
-4657 867 0
-9471 -867 4657 0
-4658 9471 0
-4658 872 0
-9471 -872 4658 0
-4659 9471 0
-4659 876 0
-9471 -876 4659 0
-4660 9471 0
-4660 879 0
-9471 -879 4660 0
-4661 9471 0
-4661 881 0
-9471 -881 4661 0
-4662 9471 0
-4662 882 0
-9471 -882 4662 0
-4663 9472 0
-4663 673 0
-9472 -673 4663 0
-4664 9472 0
-4664 674 0
-9472 -674 4664 0
-4665 9472 0
-4665 675 0
-9472 -675 4665 0
-4666 9472 0
-4666 676 0
-9472 -676 4666 0
-4667 9472 0
-4667 677 0
-9472 -677 4667 0
-4668 9472 0
-4668 678 0
-9472 -678 4668 0
-4669 9472 0
-4669 679 0
-9472 -679 4669 0
-4670 9472 0
-4670 680 0
-9472 -680 4670 0
-4671 9472 0
-4671 681 0
-9472 -681 4671 0
-4672 9472 0
-4672 682 0
-9472 -682 4672 0
-4673 9472 0
-4673 683 0
-9472 -683 4673 0
-4674 9472 0
-4674 684 0
-9472 -684 4674 0
-4675 9472 0
-4675 685 0
-9472 -685 4675 0
-4676 9472 0
-4676 686 0
-9472 -686 4676 0
-4677 9472 0
-4677 687 0
-9472 -687 4677 0
-4678 9472 0
-4678 688 0
-9472 -688 4678 0
-4679 9472 0
-4679 689 0
-9472 -689 4679 0
-4680 9472 0
-4680 690 0
-9472 -690 4680 0
-4681 9472 0
-4681 691 0
-9472 -691 4681 0
-4682 9472 0
-4682 692 0
-9472 -692 4682 0
-4683 9473 0
-4683 673 0
-9473 -673 4683 0
-4684 9473 0
-4684 693 0
-9473 -693 4684 0
-4685 9473 0
-4685 694 0
-9473 -694 4685 0
-4686 9473 0
-4686 695 0
-9473 -695 4686 0
-4687 9473 0
-4687 696 0
-9473 -696 4687 0
-4688 9473 0
-4688 697 0
-9473 -697 4688 0
-4689 9473 0
-4689 698 0
-9473 -698 4689 0
-4690 9473 0
-4690 699 0
-9473 -699 4690 0
-4691 9473 0
-4691 700 0
-9473 -700 4691 0
-4692 9473 0
-4692 701 0
-9473 -701 4692 0
-4693 9473 0
-4693 702 0
-9473 -702 4693 0
-4694 9473 0
-4694 703 0
-9473 -703 4694 0
-4695 9473 0
-4695 704 0
-9473 -704 4695 0
-4696 9473 0
-4696 705 0
-9473 -705 4696 0
-4697 9473 0
-4697 706 0
-9473 -706 4697 0
-4698 9473 0
-4698 707 0
-9473 -707 4698 0
-4699 9473 0
-4699 708 0
-9473 -708 4699 0
-4700 9473 0
-4700 709 0
-9473 -709 4700 0
-4701 9473 0
-4701 710 0
-9473 -710 4701 0
-4702 9473 0
-4702 711 0
-9473 -711 4702 0
-4703 9474 0
-4703 674 0
-9474 -674 4703 0
-4704 9474 0
-4704 693 0
-9474 -693 4704 0
-4705 9474 0
-4705 712 0
-9474 -712 4705 0
-4706 9474 0
-4706 713 0
-9474 -713 4706 0
-4707 9474 0
-4707 714 0
-9474 -714 4707 0
-4708 9474 0
-4708 715 0
-9474 -715 4708 0
-4709 9474 0
-4709 716 0
-9474 -716 4709 0
-4710 9474 0
-4710 717 0
-9474 -717 4710 0
-4711 9474 0
-4711 718 0
-9474 -718 4711 0
-4712 9474 0
-4712 719 0
-9474 -719 4712 0
-4713 9474 0
-4713 720 0
-9474 -720 4713 0
-4714 9474 0
-4714 721 0
-9474 -721 4714 0
-4715 9474 0
-4715 722 0
-9474 -722 4715 0
-4716 9474 0
-4716 723 0
-9474 -723 4716 0
-4717 9474 0
-4717 724 0
-9474 -724 4717 0
-4718 9474 0
-4718 725 0
-9474 -725 4718 0
-4719 9474 0
-4719 726 0
-9474 -726 4719 0
-4720 9474 0
-4720 727 0
-9474 -727 4720 0
-4721 9474 0
-4721 728 0
-9474 -728 4721 0
-4722 9474 0
-4722 729 0
-9474 -729 4722 0
-4723 9475 0
-4723 675 0
-9475 -675 4723 0
-4724 9475 0
-4724 694 0
-9475 -694 4724 0
-4725 9475 0
-4725 712 0
-9475 -712 4725 0
-4726 9475 0
-4726 730 0
-9475 -730 4726 0
-4727 9475 0
-4727 731 0
-9475 -731 4727 0
-4728 9475 0
-4728 732 0
-9475 -732 4728 0
-4729 9475 0
-4729 733 0
-9475 -733 4729 0
-4730 9475 0
-4730 734 0
-9475 -734 4730 0
-4731 9475 0
-4731 735 0
-9475 -735 4731 0
-4732 9475 0
-4732 736 0
-9475 -736 4732 0
-4733 9475 0
-4733 737 0
-9475 -737 4733 0
-4734 9475 0
-4734 738 0
-9475 -738 4734 0
-4735 9475 0
-4735 739 0
-9475 -739 4735 0
-4736 9475 0
-4736 740 0
-9475 -740 4736 0
-4737 9475 0
-4737 741 0
-9475 -741 4737 0
-4738 9475 0
-4738 742 0
-9475 -742 4738 0
-4739 9475 0
-4739 743 0
-9475 -743 4739 0
-4740 9475 0
-4740 744 0
-9475 -744 4740 0
-4741 9475 0
-4741 745 0
-9475 -745 4741 0
-4742 9475 0
-4742 746 0
-9475 -746 4742 0
-4743 9476 0
-4743 676 0
-9476 -676 4743 0
-4744 9476 0
-4744 695 0
-9476 -695 4744 0
-4745 9476 0
-4745 713 0
-9476 -713 4745 0
-4746 9476 0
-4746 730 0
-9476 -730 4746 0
-4747 9476 0
-4747 747 0
-9476 -747 4747 0
-4748 9476 0
-4748 748 0
-9476 -748 4748 0
-4749 9476 0
-4749 749 0
-9476 -749 4749 0
-4750 9476 0
-4750 750 0
-9476 -750 4750 0
-4751 9476 0
-4751 751 0
-9476 -751 4751 0
-4752 9476 0
-4752 752 0
-9476 -752 4752 0
-4753 9476 0
-4753 753 0
-9476 -753 4753 0
-4754 9476 0
-4754 754 0
-9476 -754 4754 0
-4755 9476 0
-4755 755 0
-9476 -755 4755 0
-4756 9476 0
-4756 756 0
-9476 -756 4756 0
-4757 9476 0
-4757 757 0
-9476 -757 4757 0
-4758 9476 0
-4758 758 0
-9476 -758 4758 0
-4759 9476 0
-4759 759 0
-9476 -759 4759 0
-4760 9476 0
-4760 760 0
-9476 -760 4760 0
-4761 9476 0
-4761 761 0
-9476 -761 4761 0
-4762 9476 0
-4762 762 0
-9476 -762 4762 0
-4763 9477 0
-4763 677 0
-9477 -677 4763 0
-4764 9477 0
-4764 696 0
-9477 -696 4764 0
-4765 9477 0
-4765 714 0
-9477 -714 4765 0
-4766 9477 0
-4766 731 0
-9477 -731 4766 0
-4767 9477 0
-4767 747 0
-9477 -747 4767 0
-4768 9477 0
-4768 763 0
-9477 -763 4768 0
-4769 9477 0
-4769 764 0
-9477 -764 4769 0
-4770 9477 0
-4770 765 0
-9477 -765 4770 0
-4771 9477 0
-4771 766 0
-9477 -766 4771 0
-4772 9477 0
-4772 767 0
-9477 -767 4772 0
-4773 9477 0
-4773 768 0
-9477 -768 4773 0
-4774 9477 0
-4774 769 0
-9477 -769 4774 0
-4775 9477 0
-4775 770 0
-9477 -770 4775 0
-4776 9477 0
-4776 771 0
-9477 -771 4776 0
-4777 9477 0
-4777 772 0
-9477 -772 4777 0
-4778 9477 0
-4778 773 0
-9477 -773 4778 0
-4779 9477 0
-4779 774 0
-9477 -774 4779 0
-4780 9477 0
-4780 775 0
-9477 -775 4780 0
-4781 9477 0
-4781 776 0
-9477 -776 4781 0
-4782 9477 0
-4782 777 0
-9477 -777 4782 0
-4783 9478 0
-4783 678 0
-9478 -678 4783 0
-4784 9478 0
-4784 697 0
-9478 -697 4784 0
-4785 9478 0
-4785 715 0
-9478 -715 4785 0
-4786 9478 0
-4786 732 0
-9478 -732 4786 0
-4787 9478 0
-4787 748 0
-9478 -748 4787 0
-4788 9478 0
-4788 763 0
-9478 -763 4788 0
-4789 9478 0
-4789 778 0
-9478 -778 4789 0
-4790 9478 0
-4790 779 0
-9478 -779 4790 0
-4791 9478 0
-4791 780 0
-9478 -780 4791 0
-4792 9478 0
-4792 781 0
-9478 -781 4792 0
-4793 9478 0
-4793 782 0
-9478 -782 4793 0
-4794 9478 0
-4794 783 0
-9478 -783 4794 0
-4795 9478 0
-4795 784 0
-9478 -784 4795 0
-4796 9478 0
-4796 785 0
-9478 -785 4796 0
-4797 9478 0
-4797 786 0
-9478 -786 4797 0
-4798 9478 0
-4798 787 0
-9478 -787 4798 0
-4799 9478 0
-4799 788 0
-9478 -788 4799 0
-4800 9478 0
-4800 789 0
-9478 -789 4800 0
-4801 9478 0
-4801 790 0
-9478 -790 4801 0
-4802 9478 0
-4802 791 0
-9478 -791 4802 0
-4803 9479 0
-4803 679 0
-9479 -679 4803 0
-4804 9479 0
-4804 698 0
-9479 -698 4804 0
-4805 9479 0
-4805 716 0
-9479 -716 4805 0
-4806 9479 0
-4806 733 0
-9479 -733 4806 0
-4807 9479 0
-4807 749 0
-9479 -749 4807 0
-4808 9479 0
-4808 764 0
-9479 -764 4808 0
-4809 9479 0
-4809 778 0
-9479 -778 4809 0
-4810 9479 0
-4810 792 0
-9479 -792 4810 0
-4811 9479 0
-4811 793 0
-9479 -793 4811 0
-4812 9479 0
-4812 794 0
-9479 -794 4812 0
-4813 9479 0
-4813 795 0
-9479 -795 4813 0
-4814 9479 0
-4814 796 0
-9479 -796 4814 0
-4815 9479 0
-4815 797 0
-9479 -797 4815 0
-4816 9479 0
-4816 798 0
-9479 -798 4816 0
-4817 9479 0
-4817 799 0
-9479 -799 4817 0
-4818 9479 0
-4818 800 0
-9479 -800 4818 0
-4819 9479 0
-4819 801 0
-9479 -801 4819 0
-4820 9479 0
-4820 802 0
-9479 -802 4820 0
-4821 9479 0
-4821 803 0
-9479 -803 4821 0
-4822 9479 0
-4822 804 0
-9479 -804 4822 0
-4823 9480 0
-4823 680 0
-9480 -680 4823 0
-4824 9480 0
-4824 699 0
-9480 -699 4824 0
-4825 9480 0
-4825 717 0
-9480 -717 4825 0
-4826 9480 0
-4826 734 0
-9480 -734 4826 0
-4827 9480 0
-4827 750 0
-9480 -750 4827 0
-4828 9480 0
-4828 765 0
-9480 -765 4828 0
-4829 9480 0
-4829 779 0
-9480 -779 4829 0
-4830 9480 0
-4830 792 0
-9480 -792 4830 0
-4831 9480 0
-4831 805 0
-9480 -805 4831 0
-4832 9480 0
-4832 806 0
-9480 -806 4832 0
-4833 9480 0
-4833 807 0
-9480 -807 4833 0
-4834 9480 0
-4834 808 0
-9480 -808 4834 0
-4835 9480 0
-4835 809 0
-9480 -809 4835 0
-4836 9480 0
-4836 810 0
-9480 -810 4836 0
-4837 9480 0
-4837 811 0
-9480 -811 4837 0
-4838 9480 0
-4838 812 0
-9480 -812 4838 0
-4839 9480 0
-4839 813 0
-9480 -813 4839 0
-4840 9480 0
-4840 814 0
-9480 -814 4840 0
-4841 9480 0
-4841 815 0
-9480 -815 4841 0
-4842 9480 0
-4842 816 0
-9480 -816 4842 0
-4843 9481 0
-4843 681 0
-9481 -681 4843 0
-4844 9481 0
-4844 700 0
-9481 -700 4844 0
-4845 9481 0
-4845 718 0
-9481 -718 4845 0
-4846 9481 0
-4846 735 0
-9481 -735 4846 0
-4847 9481 0
-4847 751 0
-9481 -751 4847 0
-4848 9481 0
-4848 766 0
-9481 -766 4848 0
-4849 9481 0
-4849 780 0
-9481 -780 4849 0
-4850 9481 0
-4850 793 0
-9481 -793 4850 0
-4851 9481 0
-4851 805 0
-9481 -805 4851 0
-4852 9481 0
-4852 817 0
-9481 -817 4852 0
-4853 9481 0
-4853 818 0
-9481 -818 4853 0
-4854 9481 0
-4854 819 0
-9481 -819 4854 0
-4855 9481 0
-4855 820 0
-9481 -820 4855 0
-4856 9481 0
-4856 821 0
-9481 -821 4856 0
-4857 9481 0
-4857 822 0
-9481 -822 4857 0
-4858 9481 0
-4858 823 0
-9481 -823 4858 0
-4859 9481 0
-4859 824 0
-9481 -824 4859 0
-4860 9481 0
-4860 825 0
-9481 -825 4860 0
-4861 9481 0
-4861 826 0
-9481 -826 4861 0
-4862 9481 0
-4862 827 0
-9481 -827 4862 0
-4863 9482 0
-4863 682 0
-9482 -682 4863 0
-4864 9482 0
-4864 701 0
-9482 -701 4864 0
-4865 9482 0
-4865 719 0
-9482 -719 4865 0
-4866 9482 0
-4866 736 0
-9482 -736 4866 0
-4867 9482 0
-4867 752 0
-9482 -752 4867 0
-4868 9482 0
-4868 767 0
-9482 -767 4868 0
-4869 9482 0
-4869 781 0
-9482 -781 4869 0
-4870 9482 0
-4870 794 0
-9482 -794 4870 0
-4871 9482 0
-4871 806 0
-9482 -806 4871 0
-4872 9482 0
-4872 817 0
-9482 -817 4872 0
-4873 9482 0
-4873 828 0
-9482 -828 4873 0
-4874 9482 0
-4874 829 0
-9482 -829 4874 0
-4875 9482 0
-4875 830 0
-9482 -830 4875 0
-4876 9482 0
-4876 831 0
-9482 -831 4876 0
-4877 9482 0
-4877 832 0
-9482 -832 4877 0
-4878 9482 0
-4878 833 0
-9482 -833 4878 0
-4879 9482 0
-4879 834 0
-9482 -834 4879 0
-4880 9482 0
-4880 835 0
-9482 -835 4880 0
-4881 9482 0
-4881 836 0
-9482 -836 4881 0
-4882 9482 0
-4882 837 0
-9482 -837 4882 0
-4883 9483 0
-4883 683 0
-9483 -683 4883 0
-4884 9483 0
-4884 702 0
-9483 -702 4884 0
-4885 9483 0
-4885 720 0
-9483 -720 4885 0
-4886 9483 0
-4886 737 0
-9483 -737 4886 0
-4887 9483 0
-4887 753 0
-9483 -753 4887 0
-4888 9483 0
-4888 768 0
-9483 -768 4888 0
-4889 9483 0
-4889 782 0
-9483 -782 4889 0
-4890 9483 0
-4890 795 0
-9483 -795 4890 0
-4891 9483 0
-4891 807 0
-9483 -807 4891 0
-4892 9483 0
-4892 818 0
-9483 -818 4892 0
-4893 9483 0
-4893 828 0
-9483 -828 4893 0
-4894 9483 0
-4894 838 0
-9483 -838 4894 0
-4895 9483 0
-4895 839 0
-9483 -839 4895 0
-4896 9483 0
-4896 840 0
-9483 -840 4896 0
-4897 9483 0
-4897 841 0
-9483 -841 4897 0
-4898 9483 0
-4898 842 0
-9483 -842 4898 0
-4899 9483 0
-4899 843 0
-9483 -843 4899 0
-4900 9483 0
-4900 844 0
-9483 -844 4900 0
-4901 9483 0
-4901 845 0
-9483 -845 4901 0
-4902 9483 0
-4902 846 0
-9483 -846 4902 0
-4903 9484 0
-4903 684 0
-9484 -684 4903 0
-4904 9484 0
-4904 703 0
-9484 -703 4904 0
-4905 9484 0
-4905 721 0
-9484 -721 4905 0
-4906 9484 0
-4906 738 0
-9484 -738 4906 0
-4907 9484 0
-4907 754 0
-9484 -754 4907 0
-4908 9484 0
-4908 769 0
-9484 -769 4908 0
-4909 9484 0
-4909 783 0
-9484 -783 4909 0
-4910 9484 0
-4910 796 0
-9484 -796 4910 0
-4911 9484 0
-4911 808 0
-9484 -808 4911 0
-4912 9484 0
-4912 819 0
-9484 -819 4912 0
-4913 9484 0
-4913 829 0
-9484 -829 4913 0
-4914 9484 0
-4914 838 0
-9484 -838 4914 0
-4915 9484 0
-4915 847 0
-9484 -847 4915 0
-4916 9484 0
-4916 848 0
-9484 -848 4916 0
-4917 9484 0
-4917 849 0
-9484 -849 4917 0
-4918 9484 0
-4918 850 0
-9484 -850 4918 0
-4919 9484 0
-4919 851 0
-9484 -851 4919 0
-4920 9484 0
-4920 852 0
-9484 -852 4920 0
-4921 9484 0
-4921 853 0
-9484 -853 4921 0
-4922 9484 0
-4922 854 0
-9484 -854 4922 0
-4923 9485 0
-4923 685 0
-9485 -685 4923 0
-4924 9485 0
-4924 704 0
-9485 -704 4924 0
-4925 9485 0
-4925 722 0
-9485 -722 4925 0
-4926 9485 0
-4926 739 0
-9485 -739 4926 0
-4927 9485 0
-4927 755 0
-9485 -755 4927 0
-4928 9485 0
-4928 770 0
-9485 -770 4928 0
-4929 9485 0
-4929 784 0
-9485 -784 4929 0
-4930 9485 0
-4930 797 0
-9485 -797 4930 0
-4931 9485 0
-4931 809 0
-9485 -809 4931 0
-4932 9485 0
-4932 820 0
-9485 -820 4932 0
-4933 9485 0
-4933 830 0
-9485 -830 4933 0
-4934 9485 0
-4934 839 0
-9485 -839 4934 0
-4935 9485 0
-4935 847 0
-9485 -847 4935 0
-4936 9485 0
-4936 855 0
-9485 -855 4936 0
-4937 9485 0
-4937 856 0
-9485 -856 4937 0
-4938 9485 0
-4938 857 0
-9485 -857 4938 0
-4939 9485 0
-4939 858 0
-9485 -858 4939 0
-4940 9485 0
-4940 859 0
-9485 -859 4940 0
-4941 9485 0
-4941 860 0
-9485 -860 4941 0
-4942 9485 0
-4942 861 0
-9485 -861 4942 0
-4943 9486 0
-4943 686 0
-9486 -686 4943 0
-4944 9486 0
-4944 705 0
-9486 -705 4944 0
-4945 9486 0
-4945 723 0
-9486 -723 4945 0
-4946 9486 0
-4946 740 0
-9486 -740 4946 0
-4947 9486 0
-4947 756 0
-9486 -756 4947 0
-4948 9486 0
-4948 771 0
-9486 -771 4948 0
-4949 9486 0
-4949 785 0
-9486 -785 4949 0
-4950 9486 0
-4950 798 0
-9486 -798 4950 0
-4951 9486 0
-4951 810 0
-9486 -810 4951 0
-4952 9486 0
-4952 821 0
-9486 -821 4952 0
-4953 9486 0
-4953 831 0
-9486 -831 4953 0
-4954 9486 0
-4954 840 0
-9486 -840 4954 0
-4955 9486 0
-4955 848 0
-9486 -848 4955 0
-4956 9486 0
-4956 855 0
-9486 -855 4956 0
-4957 9486 0
-4957 862 0
-9486 -862 4957 0
-4958 9486 0
-4958 863 0
-9486 -863 4958 0
-4959 9486 0
-4959 864 0
-9486 -864 4959 0
-4960 9486 0
-4960 865 0
-9486 -865 4960 0
-4961 9486 0
-4961 866 0
-9486 -866 4961 0
-4962 9486 0
-4962 867 0
-9486 -867 4962 0
-4963 9487 0
-4963 687 0
-9487 -687 4963 0
-4964 9487 0
-4964 706 0
-9487 -706 4964 0
-4965 9487 0
-4965 724 0
-9487 -724 4965 0
-4966 9487 0
-4966 741 0
-9487 -741 4966 0
-4967 9487 0
-4967 757 0
-9487 -757 4967 0
-4968 9487 0
-4968 772 0
-9487 -772 4968 0
-4969 9487 0
-4969 786 0
-9487 -786 4969 0
-4970 9487 0
-4970 799 0
-9487 -799 4970 0
-4971 9487 0
-4971 811 0
-9487 -811 4971 0
-4972 9487 0
-4972 822 0
-9487 -822 4972 0
-4973 9487 0
-4973 832 0
-9487 -832 4973 0
-4974 9487 0
-4974 841 0
-9487 -841 4974 0
-4975 9487 0
-4975 849 0
-9487 -849 4975 0
-4976 9487 0
-4976 856 0
-9487 -856 4976 0
-4977 9487 0
-4977 862 0
-9487 -862 4977 0
-4978 9487 0
-4978 868 0
-9487 -868 4978 0
-4979 9487 0
-4979 869 0
-9487 -869 4979 0
-4980 9487 0
-4980 870 0
-9487 -870 4980 0
-4981 9487 0
-4981 871 0
-9487 -871 4981 0
-4982 9487 0
-4982 872 0
-9487 -872 4982 0
-4983 9488 0
-4983 688 0
-9488 -688 4983 0
-4984 9488 0
-4984 707 0
-9488 -707 4984 0
-4985 9488 0
-4985 725 0
-9488 -725 4985 0
-4986 9488 0
-4986 742 0
-9488 -742 4986 0
-4987 9488 0
-4987 758 0
-9488 -758 4987 0
-4988 9488 0
-4988 773 0
-9488 -773 4988 0
-4989 9488 0
-4989 787 0
-9488 -787 4989 0
-4990 9488 0
-4990 800 0
-9488 -800 4990 0
-4991 9488 0
-4991 812 0
-9488 -812 4991 0
-4992 9488 0
-4992 823 0
-9488 -823 4992 0
-4993 9488 0
-4993 833 0
-9488 -833 4993 0
-4994 9488 0
-4994 842 0
-9488 -842 4994 0
-4995 9488 0
-4995 850 0
-9488 -850 4995 0
-4996 9488 0
-4996 857 0
-9488 -857 4996 0
-4997 9488 0
-4997 863 0
-9488 -863 4997 0
-4998 9488 0
-4998 868 0
-9488 -868 4998 0
-4999 9488 0
-4999 873 0
-9488 -873 4999 0
-5000 9488 0
-5000 874 0
-9488 -874 5000 0
-5001 9488 0
-5001 875 0
-9488 -875 5001 0
-5002 9488 0
-5002 876 0
-9488 -876 5002 0
-5003 9489 0
-5003 689 0
-9489 -689 5003 0
-5004 9489 0
-5004 708 0
-9489 -708 5004 0
-5005 9489 0
-5005 726 0
-9489 -726 5005 0
-5006 9489 0
-5006 743 0
-9489 -743 5006 0
-5007 9489 0
-5007 759 0
-9489 -759 5007 0
-5008 9489 0
-5008 774 0
-9489 -774 5008 0
-5009 9489 0
-5009 788 0
-9489 -788 5009 0
-5010 9489 0
-5010 801 0
-9489 -801 5010 0
-5011 9489 0
-5011 813 0
-9489 -813 5011 0
-5012 9489 0
-5012 824 0
-9489 -824 5012 0
-5013 9489 0
-5013 834 0
-9489 -834 5013 0
-5014 9489 0
-5014 843 0
-9489 -843 5014 0
-5015 9489 0
-5015 851 0
-9489 -851 5015 0
-5016 9489 0
-5016 858 0
-9489 -858 5016 0
-5017 9489 0
-5017 864 0
-9489 -864 5017 0
-5018 9489 0
-5018 869 0
-9489 -869 5018 0
-5019 9489 0
-5019 873 0
-9489 -873 5019 0
-5020 9489 0
-5020 877 0
-9489 -877 5020 0
-5021 9489 0
-5021 878 0
-9489 -878 5021 0
-5022 9489 0
-5022 879 0
-9489 -879 5022 0
-5023 9490 0
-5023 690 0
-9490 -690 5023 0
-5024 9490 0
-5024 709 0
-9490 -709 5024 0
-5025 9490 0
-5025 727 0
-9490 -727 5025 0
-5026 9490 0
-5026 744 0
-9490 -744 5026 0
-5027 9490 0
-5027 760 0
-9490 -760 5027 0
-5028 9490 0
-5028 775 0
-9490 -775 5028 0
-5029 9490 0
-5029 789 0
-9490 -789 5029 0
-5030 9490 0
-5030 802 0
-9490 -802 5030 0
-5031 9490 0
-5031 814 0
-9490 -814 5031 0
-5032 9490 0
-5032 825 0
-9490 -825 5032 0
-5033 9490 0
-5033 835 0
-9490 -835 5033 0
-5034 9490 0
-5034 844 0
-9490 -844 5034 0
-5035 9490 0
-5035 852 0
-9490 -852 5035 0
-5036 9490 0
-5036 859 0
-9490 -859 5036 0
-5037 9490 0
-5037 865 0
-9490 -865 5037 0
-5038 9490 0
-5038 870 0
-9490 -870 5038 0
-5039 9490 0
-5039 874 0
-9490 -874 5039 0
-5040 9490 0
-5040 877 0
-9490 -877 5040 0
-5041 9490 0
-5041 880 0
-9490 -880 5041 0
-5042 9490 0
-5042 881 0
-9490 -881 5042 0
-5043 9491 0
-5043 691 0
-9491 -691 5043 0
-5044 9491 0
-5044 710 0
-9491 -710 5044 0
-5045 9491 0
-5045 728 0
-9491 -728 5045 0
-5046 9491 0
-5046 745 0
-9491 -745 5046 0
-5047 9491 0
-5047 761 0
-9491 -761 5047 0
-5048 9491 0
-5048 776 0
-9491 -776 5048 0
-5049 9491 0
-5049 790 0
-9491 -790 5049 0
-5050 9491 0
-5050 803 0
-9491 -803 5050 0
-5051 9491 0
-5051 815 0
-9491 -815 5051 0
-5052 9491 0
-5052 826 0
-9491 -826 5052 0
-5053 9491 0
-5053 836 0
-9491 -836 5053 0
-5054 9491 0
-5054 845 0
-9491 -845 5054 0
-5055 9491 0
-5055 853 0
-9491 -853 5055 0
-5056 9491 0
-5056 860 0
-9491 -860 5056 0
-5057 9491 0
-5057 866 0
-9491 -866 5057 0
-5058 9491 0
-5058 871 0
-9491 -871 5058 0
-5059 9491 0
-5059 875 0
-9491 -875 5059 0
-5060 9491 0
-5060 878 0
-9491 -878 5060 0
-5061 9491 0
-5061 880 0
-9491 -880 5061 0
-5062 9491 0
-5062 882 0
-9491 -882 5062 0
-5063 9492 0
-5063 692 0
-9492 -692 5063 0
-5064 9492 0
-5064 711 0
-9492 -711 5064 0
-5065 9492 0
-5065 729 0
-9492 -729 5065 0
-5066 9492 0
-5066 746 0
-9492 -746 5066 0
-5067 9492 0
-5067 762 0
-9492 -762 5067 0
-5068 9492 0
-5068 777 0
-9492 -777 5068 0
-5069 9492 0
-5069 791 0
-9492 -791 5069 0
-5070 9492 0
-5070 804 0
-9492 -804 5070 0
-5071 9492 0
-5071 816 0
-9492 -816 5071 0
-5072 9492 0
-5072 827 0
-9492 -827 5072 0
-5073 9492 0
-5073 837 0
-9492 -837 5073 0
-5074 9492 0
-5074 846 0
-9492 -846 5074 0
-5075 9492 0
-5075 854 0
-9492 -854 5075 0
-5076 9492 0
-5076 861 0
-9492 -861 5076 0
-5077 9492 0
-5077 867 0
-9492 -867 5077 0
-5078 9492 0
-5078 872 0
-9492 -872 5078 0
-5079 9492 0
-5079 876 0
-9492 -876 5079 0
-5080 9492 0
-5080 879 0
-9492 -879 5080 0
-5081 9492 0
-5081 881 0
-9492 -881 5081 0
-5082 9492 0
-5082 882 0
-9492 -882 5082 0
-5083 9493 0
-5083 673 0
-9493 -673 5083 0
-5084 9493 0
-5084 674 0
-9493 -674 5084 0
-5085 9493 0
-5085 675 0
-9493 -675 5085 0
-5086 9493 0
-5086 676 0
-9493 -676 5086 0
-5087 9493 0
-5087 677 0
-9493 -677 5087 0
-5088 9493 0
-5088 678 0
-9493 -678 5088 0
-5089 9493 0
-5089 679 0
-9493 -679 5089 0
-5090 9493 0
-5090 680 0
-9493 -680 5090 0
-5091 9493 0
-5091 681 0
-9493 -681 5091 0
-5092 9493 0
-5092 682 0
-9493 -682 5092 0
-5093 9493 0
-5093 683 0
-9493 -683 5093 0
-5094 9493 0
-5094 684 0
-9493 -684 5094 0
-5095 9493 0
-5095 685 0
-9493 -685 5095 0
-5096 9493 0
-5096 686 0
-9493 -686 5096 0
-5097 9493 0
-5097 687 0
-9493 -687 5097 0
-5098 9493 0
-5098 688 0
-9493 -688 5098 0
-5099 9493 0
-5099 689 0
-9493 -689 5099 0
-5100 9493 0
-5100 690 0
-9493 -690 5100 0
-5101 9493 0
-5101 691 0
-9493 -691 5101 0
-5102 9493 0
-5102 692 0
-9493 -692 5102 0
-5103 9494 0
-5103 673 0
-9494 -673 5103 0
-5104 9494 0
-5104 693 0
-9494 -693 5104 0
-5105 9494 0
-5105 694 0
-9494 -694 5105 0
-5106 9494 0
-5106 695 0
-9494 -695 5106 0
-5107 9494 0
-5107 696 0
-9494 -696 5107 0
-5108 9494 0
-5108 697 0
-9494 -697 5108 0
-5109 9494 0
-5109 698 0
-9494 -698 5109 0
-5110 9494 0
-5110 699 0
-9494 -699 5110 0
-5111 9494 0
-5111 700 0
-9494 -700 5111 0
-5112 9494 0
-5112 701 0
-9494 -701 5112 0
-5113 9494 0
-5113 702 0
-9494 -702 5113 0
-5114 9494 0
-5114 703 0
-9494 -703 5114 0
-5115 9494 0
-5115 704 0
-9494 -704 5115 0
-5116 9494 0
-5116 705 0
-9494 -705 5116 0
-5117 9494 0
-5117 706 0
-9494 -706 5117 0
-5118 9494 0
-5118 707 0
-9494 -707 5118 0
-5119 9494 0
-5119 708 0
-9494 -708 5119 0
-5120 9494 0
-5120 709 0
-9494 -709 5120 0
-5121 9494 0
-5121 710 0
-9494 -710 5121 0
-5122 9494 0
-5122 711 0
-9494 -711 5122 0
-5123 9495 0
-5123 674 0
-9495 -674 5123 0
-5124 9495 0
-5124 693 0
-9495 -693 5124 0
-5125 9495 0
-5125 712 0
-9495 -712 5125 0
-5126 9495 0
-5126 713 0
-9495 -713 5126 0
-5127 9495 0
-5127 714 0
-9495 -714 5127 0
-5128 9495 0
-5128 715 0
-9495 -715 5128 0
-5129 9495 0
-5129 716 0
-9495 -716 5129 0
-5130 9495 0
-5130 717 0
-9495 -717 5130 0
-5131 9495 0
-5131 718 0
-9495 -718 5131 0
-5132 9495 0
-5132 719 0
-9495 -719 5132 0
-5133 9495 0
-5133 720 0
-9495 -720 5133 0
-5134 9495 0
-5134 721 0
-9495 -721 5134 0
-5135 9495 0
-5135 722 0
-9495 -722 5135 0
-5136 9495 0
-5136 723 0
-9495 -723 5136 0
-5137 9495 0
-5137 724 0
-9495 -724 5137 0
-5138 9495 0
-5138 725 0
-9495 -725 5138 0
-5139 9495 0
-5139 726 0
-9495 -726 5139 0
-5140 9495 0
-5140 727 0
-9495 -727 5140 0
-5141 9495 0
-5141 728 0
-9495 -728 5141 0
-5142 9495 0
-5142 729 0
-9495 -729 5142 0
-5143 9496 0
-5143 675 0
-9496 -675 5143 0
-5144 9496 0
-5144 694 0
-9496 -694 5144 0
-5145 9496 0
-5145 712 0
-9496 -712 5145 0
-5146 9496 0
-5146 730 0
-9496 -730 5146 0
-5147 9496 0
-5147 731 0
-9496 -731 5147 0
-5148 9496 0
-5148 732 0
-9496 -732 5148 0
-5149 9496 0
-5149 733 0
-9496 -733 5149 0
-5150 9496 0
-5150 734 0
-9496 -734 5150 0
-5151 9496 0
-5151 735 0
-9496 -735 5151 0
-5152 9496 0
-5152 736 0
-9496 -736 5152 0
-5153 9496 0
-5153 737 0
-9496 -737 5153 0
-5154 9496 0
-5154 738 0
-9496 -738 5154 0
-5155 9496 0
-5155 739 0
-9496 -739 5155 0
-5156 9496 0
-5156 740 0
-9496 -740 5156 0
-5157 9496 0
-5157 741 0
-9496 -741 5157 0
-5158 9496 0
-5158 742 0
-9496 -742 5158 0
-5159 9496 0
-5159 743 0
-9496 -743 5159 0
-5160 9496 0
-5160 744 0
-9496 -744 5160 0
-5161 9496 0
-5161 745 0
-9496 -745 5161 0
-5162 9496 0
-5162 746 0
-9496 -746 5162 0
-5163 9497 0
-5163 676 0
-9497 -676 5163 0
-5164 9497 0
-5164 695 0
-9497 -695 5164 0
-5165 9497 0
-5165 713 0
-9497 -713 5165 0
-5166 9497 0
-5166 730 0
-9497 -730 5166 0
-5167 9497 0
-5167 747 0
-9497 -747 5167 0
-5168 9497 0
-5168 748 0
-9497 -748 5168 0
-5169 9497 0
-5169 749 0
-9497 -749 5169 0
-5170 9497 0
-5170 750 0
-9497 -750 5170 0
-5171 9497 0
-5171 751 0
-9497 -751 5171 0
-5172 9497 0
-5172 752 0
-9497 -752 5172 0
-5173 9497 0
-5173 753 0
-9497 -753 5173 0
-5174 9497 0
-5174 754 0
-9497 -754 5174 0
-5175 9497 0
-5175 755 0
-9497 -755 5175 0
-5176 9497 0
-5176 756 0
-9497 -756 5176 0
-5177 9497 0
-5177 757 0
-9497 -757 5177 0
-5178 9497 0
-5178 758 0
-9497 -758 5178 0
-5179 9497 0
-5179 759 0
-9497 -759 5179 0
-5180 9497 0
-5180 760 0
-9497 -760 5180 0
-5181 9497 0
-5181 761 0
-9497 -761 5181 0
-5182 9497 0
-5182 762 0
-9497 -762 5182 0
-5183 9498 0
-5183 677 0
-9498 -677 5183 0
-5184 9498 0
-5184 696 0
-9498 -696 5184 0
-5185 9498 0
-5185 714 0
-9498 -714 5185 0
-5186 9498 0
-5186 731 0
-9498 -731 5186 0
-5187 9498 0
-5187 747 0
-9498 -747 5187 0
-5188 9498 0
-5188 763 0
-9498 -763 5188 0
-5189 9498 0
-5189 764 0
-9498 -764 5189 0
-5190 9498 0
-5190 765 0
-9498 -765 5190 0
-5191 9498 0
-5191 766 0
-9498 -766 5191 0
-5192 9498 0
-5192 767 0
-9498 -767 5192 0
-5193 9498 0
-5193 768 0
-9498 -768 5193 0
-5194 9498 0
-5194 769 0
-9498 -769 5194 0
-5195 9498 0
-5195 770 0
-9498 -770 5195 0
-5196 9498 0
-5196 771 0
-9498 -771 5196 0
-5197 9498 0
-5197 772 0
-9498 -772 5197 0
-5198 9498 0
-5198 773 0
-9498 -773 5198 0
-5199 9498 0
-5199 774 0
-9498 -774 5199 0
-5200 9498 0
-5200 775 0
-9498 -775 5200 0
-5201 9498 0
-5201 776 0
-9498 -776 5201 0
-5202 9498 0
-5202 777 0
-9498 -777 5202 0
-5203 9499 0
-5203 678 0
-9499 -678 5203 0
-5204 9499 0
-5204 697 0
-9499 -697 5204 0
-5205 9499 0
-5205 715 0
-9499 -715 5205 0
-5206 9499 0
-5206 732 0
-9499 -732 5206 0
-5207 9499 0
-5207 748 0
-9499 -748 5207 0
-5208 9499 0
-5208 763 0
-9499 -763 5208 0
-5209 9499 0
-5209 778 0
-9499 -778 5209 0
-5210 9499 0
-5210 779 0
-9499 -779 5210 0
-5211 9499 0
-5211 780 0
-9499 -780 5211 0
-5212 9499 0
-5212 781 0
-9499 -781 5212 0
-5213 9499 0
-5213 782 0
-9499 -782 5213 0
-5214 9499 0
-5214 783 0
-9499 -783 5214 0
-5215 9499 0
-5215 784 0
-9499 -784 5215 0
-5216 9499 0
-5216 785 0
-9499 -785 5216 0
-5217 9499 0
-5217 786 0
-9499 -786 5217 0
-5218 9499 0
-5218 787 0
-9499 -787 5218 0
-5219 9499 0
-5219 788 0
-9499 -788 5219 0
-5220 9499 0
-5220 789 0
-9499 -789 5220 0
-5221 9499 0
-5221 790 0
-9499 -790 5221 0
-5222 9499 0
-5222 791 0
-9499 -791 5222 0
-5223 9500 0
-5223 679 0
-9500 -679 5223 0
-5224 9500 0
-5224 698 0
-9500 -698 5224 0
-5225 9500 0
-5225 716 0
-9500 -716 5225 0
-5226 9500 0
-5226 733 0
-9500 -733 5226 0
-5227 9500 0
-5227 749 0
-9500 -749 5227 0
-5228 9500 0
-5228 764 0
-9500 -764 5228 0
-5229 9500 0
-5229 778 0
-9500 -778 5229 0
-5230 9500 0
-5230 792 0
-9500 -792 5230 0
-5231 9500 0
-5231 793 0
-9500 -793 5231 0
-5232 9500 0
-5232 794 0
-9500 -794 5232 0
-5233 9500 0
-5233 795 0
-9500 -795 5233 0
-5234 9500 0
-5234 796 0
-9500 -796 5234 0
-5235 9500 0
-5235 797 0
-9500 -797 5235 0
-5236 9500 0
-5236 798 0
-9500 -798 5236 0
-5237 9500 0
-5237 799 0
-9500 -799 5237 0
-5238 9500 0
-5238 800 0
-9500 -800 5238 0
-5239 9500 0
-5239 801 0
-9500 -801 5239 0
-5240 9500 0
-5240 802 0
-9500 -802 5240 0
-5241 9500 0
-5241 803 0
-9500 -803 5241 0
-5242 9500 0
-5242 804 0
-9500 -804 5242 0
-5243 9501 0
-5243 680 0
-9501 -680 5243 0
-5244 9501 0
-5244 699 0
-9501 -699 5244 0
-5245 9501 0
-5245 717 0
-9501 -717 5245 0
-5246 9501 0
-5246 734 0
-9501 -734 5246 0
-5247 9501 0
-5247 750 0
-9501 -750 5247 0
-5248 9501 0
-5248 765 0
-9501 -765 5248 0
-5249 9501 0
-5249 779 0
-9501 -779 5249 0
-5250 9501 0
-5250 792 0
-9501 -792 5250 0
-5251 9501 0
-5251 805 0
-9501 -805 5251 0
-5252 9501 0
-5252 806 0
-9501 -806 5252 0
-5253 9501 0
-5253 807 0
-9501 -807 5253 0
-5254 9501 0
-5254 808 0
-9501 -808 5254 0
-5255 9501 0
-5255 809 0
-9501 -809 5255 0
-5256 9501 0
-5256 810 0
-9501 -810 5256 0
-5257 9501 0
-5257 811 0
-9501 -811 5257 0
-5258 9501 0
-5258 812 0
-9501 -812 5258 0
-5259 9501 0
-5259 813 0
-9501 -813 5259 0
-5260 9501 0
-5260 814 0
-9501 -814 5260 0
-5261 9501 0
-5261 815 0
-9501 -815 5261 0
-5262 9501 0
-5262 816 0
-9501 -816 5262 0
-5263 9502 0
-5263 681 0
-9502 -681 5263 0
-5264 9502 0
-5264 700 0
-9502 -700 5264 0
-5265 9502 0
-5265 718 0
-9502 -718 5265 0
-5266 9502 0
-5266 735 0
-9502 -735 5266 0
-5267 9502 0
-5267 751 0
-9502 -751 5267 0
-5268 9502 0
-5268 766 0
-9502 -766 5268 0
-5269 9502 0
-5269 780 0
-9502 -780 5269 0
-5270 9502 0
-5270 793 0
-9502 -793 5270 0
-5271 9502 0
-5271 805 0
-9502 -805 5271 0
-5272 9502 0
-5272 817 0
-9502 -817 5272 0
-5273 9502 0
-5273 818 0
-9502 -818 5273 0
-5274 9502 0
-5274 819 0
-9502 -819 5274 0
-5275 9502 0
-5275 820 0
-9502 -820 5275 0
-5276 9502 0
-5276 821 0
-9502 -821 5276 0
-5277 9502 0
-5277 822 0
-9502 -822 5277 0
-5278 9502 0
-5278 823 0
-9502 -823 5278 0
-5279 9502 0
-5279 824 0
-9502 -824 5279 0
-5280 9502 0
-5280 825 0
-9502 -825 5280 0
-5281 9502 0
-5281 826 0
-9502 -826 5281 0
-5282 9502 0
-5282 827 0
-9502 -827 5282 0
-5283 9503 0
-5283 682 0
-9503 -682 5283 0
-5284 9503 0
-5284 701 0
-9503 -701 5284 0
-5285 9503 0
-5285 719 0
-9503 -719 5285 0
-5286 9503 0
-5286 736 0
-9503 -736 5286 0
-5287 9503 0
-5287 752 0
-9503 -752 5287 0
-5288 9503 0
-5288 767 0
-9503 -767 5288 0
-5289 9503 0
-5289 781 0
-9503 -781 5289 0
-5290 9503 0
-5290 794 0
-9503 -794 5290 0
-5291 9503 0
-5291 806 0
-9503 -806 5291 0
-5292 9503 0
-5292 817 0
-9503 -817 5292 0
-5293 9503 0
-5293 828 0
-9503 -828 5293 0
-5294 9503 0
-5294 829 0
-9503 -829 5294 0
-5295 9503 0
-5295 830 0
-9503 -830 5295 0
-5296 9503 0
-5296 831 0
-9503 -831 5296 0
-5297 9503 0
-5297 832 0
-9503 -832 5297 0
-5298 9503 0
-5298 833 0
-9503 -833 5298 0
-5299 9503 0
-5299 834 0
-9503 -834 5299 0
-5300 9503 0
-5300 835 0
-9503 -835 5300 0
-5301 9503 0
-5301 836 0
-9503 -836 5301 0
-5302 9503 0
-5302 837 0
-9503 -837 5302 0
-5303 9504 0
-5303 683 0
-9504 -683 5303 0
-5304 9504 0
-5304 702 0
-9504 -702 5304 0
-5305 9504 0
-5305 720 0
-9504 -720 5305 0
-5306 9504 0
-5306 737 0
-9504 -737 5306 0
-5307 9504 0
-5307 753 0
-9504 -753 5307 0
-5308 9504 0
-5308 768 0
-9504 -768 5308 0
-5309 9504 0
-5309 782 0
-9504 -782 5309 0
-5310 9504 0
-5310 795 0
-9504 -795 5310 0
-5311 9504 0
-5311 807 0
-9504 -807 5311 0
-5312 9504 0
-5312 818 0
-9504 -818 5312 0
-5313 9504 0
-5313 828 0
-9504 -828 5313 0
-5314 9504 0
-5314 838 0
-9504 -838 5314 0
-5315 9504 0
-5315 839 0
-9504 -839 5315 0
-5316 9504 0
-5316 840 0
-9504 -840 5316 0
-5317 9504 0
-5317 841 0
-9504 -841 5317 0
-5318 9504 0
-5318 842 0
-9504 -842 5318 0
-5319 9504 0
-5319 843 0
-9504 -843 5319 0
-5320 9504 0
-5320 844 0
-9504 -844 5320 0
-5321 9504 0
-5321 845 0
-9504 -845 5321 0
-5322 9504 0
-5322 846 0
-9504 -846 5322 0
-5323 9505 0
-5323 684 0
-9505 -684 5323 0
-5324 9505 0
-5324 703 0
-9505 -703 5324 0
-5325 9505 0
-5325 721 0
-9505 -721 5325 0
-5326 9505 0
-5326 738 0
-9505 -738 5326 0
-5327 9505 0
-5327 754 0
-9505 -754 5327 0
-5328 9505 0
-5328 769 0
-9505 -769 5328 0
-5329 9505 0
-5329 783 0
-9505 -783 5329 0
-5330 9505 0
-5330 796 0
-9505 -796 5330 0
-5331 9505 0
-5331 808 0
-9505 -808 5331 0
-5332 9505 0
-5332 819 0
-9505 -819 5332 0
-5333 9505 0
-5333 829 0
-9505 -829 5333 0
-5334 9505 0
-5334 838 0
-9505 -838 5334 0
-5335 9505 0
-5335 847 0
-9505 -847 5335 0
-5336 9505 0
-5336 848 0
-9505 -848 5336 0
-5337 9505 0
-5337 849 0
-9505 -849 5337 0
-5338 9505 0
-5338 850 0
-9505 -850 5338 0
-5339 9505 0
-5339 851 0
-9505 -851 5339 0
-5340 9505 0
-5340 852 0
-9505 -852 5340 0
-5341 9505 0
-5341 853 0
-9505 -853 5341 0
-5342 9505 0
-5342 854 0
-9505 -854 5342 0
-5343 9506 0
-5343 685 0
-9506 -685 5343 0
-5344 9506 0
-5344 704 0
-9506 -704 5344 0
-5345 9506 0
-5345 722 0
-9506 -722 5345 0
-5346 9506 0
-5346 739 0
-9506 -739 5346 0
-5347 9506 0
-5347 755 0
-9506 -755 5347 0
-5348 9506 0
-5348 770 0
-9506 -770 5348 0
-5349 9506 0
-5349 784 0
-9506 -784 5349 0
-5350 9506 0
-5350 797 0
-9506 -797 5350 0
-5351 9506 0
-5351 809 0
-9506 -809 5351 0
-5352 9506 0
-5352 820 0
-9506 -820 5352 0
-5353 9506 0
-5353 830 0
-9506 -830 5353 0
-5354 9506 0
-5354 839 0
-9506 -839 5354 0
-5355 9506 0
-5355 847 0
-9506 -847 5355 0
-5356 9506 0
-5356 855 0
-9506 -855 5356 0
-5357 9506 0
-5357 856 0
-9506 -856 5357 0
-5358 9506 0
-5358 857 0
-9506 -857 5358 0
-5359 9506 0
-5359 858 0
-9506 -858 5359 0
-5360 9506 0
-5360 859 0
-9506 -859 5360 0
-5361 9506 0
-5361 860 0
-9506 -860 5361 0
-5362 9506 0
-5362 861 0
-9506 -861 5362 0
-5363 9507 0
-5363 686 0
-9507 -686 5363 0
-5364 9507 0
-5364 705 0
-9507 -705 5364 0
-5365 9507 0
-5365 723 0
-9507 -723 5365 0
-5366 9507 0
-5366 740 0
-9507 -740 5366 0
-5367 9507 0
-5367 756 0
-9507 -756 5367 0
-5368 9507 0
-5368 771 0
-9507 -771 5368 0
-5369 9507 0
-5369 785 0
-9507 -785 5369 0
-5370 9507 0
-5370 798 0
-9507 -798 5370 0
-5371 9507 0
-5371 810 0
-9507 -810 5371 0
-5372 9507 0
-5372 821 0
-9507 -821 5372 0
-5373 9507 0
-5373 831 0
-9507 -831 5373 0
-5374 9507 0
-5374 840 0
-9507 -840 5374 0
-5375 9507 0
-5375 848 0
-9507 -848 5375 0
-5376 9507 0
-5376 855 0
-9507 -855 5376 0
-5377 9507 0
-5377 862 0
-9507 -862 5377 0
-5378 9507 0
-5378 863 0
-9507 -863 5378 0
-5379 9507 0
-5379 864 0
-9507 -864 5379 0
-5380 9507 0
-5380 865 0
-9507 -865 5380 0
-5381 9507 0
-5381 866 0
-9507 -866 5381 0
-5382 9507 0
-5382 867 0
-9507 -867 5382 0
-5383 9508 0
-5383 687 0
-9508 -687 5383 0
-5384 9508 0
-5384 706 0
-9508 -706 5384 0
-5385 9508 0
-5385 724 0
-9508 -724 5385 0
-5386 9508 0
-5386 741 0
-9508 -741 5386 0
-5387 9508 0
-5387 757 0
-9508 -757 5387 0
-5388 9508 0
-5388 772 0
-9508 -772 5388 0
-5389 9508 0
-5389 786 0
-9508 -786 5389 0
-5390 9508 0
-5390 799 0
-9508 -799 5390 0
-5391 9508 0
-5391 811 0
-9508 -811 5391 0
-5392 9508 0
-5392 822 0
-9508 -822 5392 0
-5393 9508 0
-5393 832 0
-9508 -832 5393 0
-5394 9508 0
-5394 841 0
-9508 -841 5394 0
-5395 9508 0
-5395 849 0
-9508 -849 5395 0
-5396 9508 0
-5396 856 0
-9508 -856 5396 0
-5397 9508 0
-5397 862 0
-9508 -862 5397 0
-5398 9508 0
-5398 868 0
-9508 -868 5398 0
-5399 9508 0
-5399 869 0
-9508 -869 5399 0
-5400 9508 0
-5400 870 0
-9508 -870 5400 0
-5401 9508 0
-5401 871 0
-9508 -871 5401 0
-5402 9508 0
-5402 872 0
-9508 -872 5402 0
-5403 9509 0
-5403 688 0
-9509 -688 5403 0
-5404 9509 0
-5404 707 0
-9509 -707 5404 0
-5405 9509 0
-5405 725 0
-9509 -725 5405 0
-5406 9509 0
-5406 742 0
-9509 -742 5406 0
-5407 9509 0
-5407 758 0
-9509 -758 5407 0
-5408 9509 0
-5408 773 0
-9509 -773 5408 0
-5409 9509 0
-5409 787 0
-9509 -787 5409 0
-5410 9509 0
-5410 800 0
-9509 -800 5410 0
-5411 9509 0
-5411 812 0
-9509 -812 5411 0
-5412 9509 0
-5412 823 0
-9509 -823 5412 0
-5413 9509 0
-5413 833 0
-9509 -833 5413 0
-5414 9509 0
-5414 842 0
-9509 -842 5414 0
-5415 9509 0
-5415 850 0
-9509 -850 5415 0
-5416 9509 0
-5416 857 0
-9509 -857 5416 0
-5417 9509 0
-5417 863 0
-9509 -863 5417 0
-5418 9509 0
-5418 868 0
-9509 -868 5418 0
-5419 9509 0
-5419 873 0
-9509 -873 5419 0
-5420 9509 0
-5420 874 0
-9509 -874 5420 0
-5421 9509 0
-5421 875 0
-9509 -875 5421 0
-5422 9509 0
-5422 876 0
-9509 -876 5422 0
-5423 9510 0
-5423 689 0
-9510 -689 5423 0
-5424 9510 0
-5424 708 0
-9510 -708 5424 0
-5425 9510 0
-5425 726 0
-9510 -726 5425 0
-5426 9510 0
-5426 743 0
-9510 -743 5426 0
-5427 9510 0
-5427 759 0
-9510 -759 5427 0
-5428 9510 0
-5428 774 0
-9510 -774 5428 0
-5429 9510 0
-5429 788 0
-9510 -788 5429 0
-5430 9510 0
-5430 801 0
-9510 -801 5430 0
-5431 9510 0
-5431 813 0
-9510 -813 5431 0
-5432 9510 0
-5432 824 0
-9510 -824 5432 0
-5433 9510 0
-5433 834 0
-9510 -834 5433 0
-5434 9510 0
-5434 843 0
-9510 -843 5434 0
-5435 9510 0
-5435 851 0
-9510 -851 5435 0
-5436 9510 0
-5436 858 0
-9510 -858 5436 0
-5437 9510 0
-5437 864 0
-9510 -864 5437 0
-5438 9510 0
-5438 869 0
-9510 -869 5438 0
-5439 9510 0
-5439 873 0
-9510 -873 5439 0
-5440 9510 0
-5440 877 0
-9510 -877 5440 0
-5441 9510 0
-5441 878 0
-9510 -878 5441 0
-5442 9510 0
-5442 879 0
-9510 -879 5442 0
-5443 9511 0
-5443 690 0
-9511 -690 5443 0
-5444 9511 0
-5444 709 0
-9511 -709 5444 0
-5445 9511 0
-5445 727 0
-9511 -727 5445 0
-5446 9511 0
-5446 744 0
-9511 -744 5446 0
-5447 9511 0
-5447 760 0
-9511 -760 5447 0
-5448 9511 0
-5448 775 0
-9511 -775 5448 0
-5449 9511 0
-5449 789 0
-9511 -789 5449 0
-5450 9511 0
-5450 802 0
-9511 -802 5450 0
-5451 9511 0
-5451 814 0
-9511 -814 5451 0
-5452 9511 0
-5452 825 0
-9511 -825 5452 0
-5453 9511 0
-5453 835 0
-9511 -835 5453 0
-5454 9511 0
-5454 844 0
-9511 -844 5454 0
-5455 9511 0
-5455 852 0
-9511 -852 5455 0
-5456 9511 0
-5456 859 0
-9511 -859 5456 0
-5457 9511 0
-5457 865 0
-9511 -865 5457 0
-5458 9511 0
-5458 870 0
-9511 -870 5458 0
-5459 9511 0
-5459 874 0
-9511 -874 5459 0
-5460 9511 0
-5460 877 0
-9511 -877 5460 0
-5461 9511 0
-5461 880 0
-9511 -880 5461 0
-5462 9511 0
-5462 881 0
-9511 -881 5462 0
-5463 9512 0
-5463 691 0
-9512 -691 5463 0
-5464 9512 0
-5464 710 0
-9512 -710 5464 0
-5465 9512 0
-5465 728 0
-9512 -728 5465 0
-5466 9512 0
-5466 745 0
-9512 -745 5466 0
-5467 9512 0
-5467 761 0
-9512 -761 5467 0
-5468 9512 0
-5468 776 0
-9512 -776 5468 0
-5469 9512 0
-5469 790 0
-9512 -790 5469 0
-5470 9512 0
-5470 803 0
-9512 -803 5470 0
-5471 9512 0
-5471 815 0
-9512 -815 5471 0
-5472 9512 0
-5472 826 0
-9512 -826 5472 0
-5473 9512 0
-5473 836 0
-9512 -836 5473 0
-5474 9512 0
-5474 845 0
-9512 -845 5474 0
-5475 9512 0
-5475 853 0
-9512 -853 5475 0
-5476 9512 0
-5476 860 0
-9512 -860 5476 0
-5477 9512 0
-5477 866 0
-9512 -866 5477 0
-5478 9512 0
-5478 871 0
-9512 -871 5478 0
-5479 9512 0
-5479 875 0
-9512 -875 5479 0
-5480 9512 0
-5480 878 0
-9512 -878 5480 0
-5481 9512 0
-5481 880 0
-9512 -880 5481 0
-5482 9512 0
-5482 882 0
-9512 -882 5482 0
-5483 9513 0
-5483 692 0
-9513 -692 5483 0
-5484 9513 0
-5484 711 0
-9513 -711 5484 0
-5485 9513 0
-5485 729 0
-9513 -729 5485 0
-5486 9513 0
-5486 746 0
-9513 -746 5486 0
-5487 9513 0
-5487 762 0
-9513 -762 5487 0
-5488 9513 0
-5488 777 0
-9513 -777 5488 0
-5489 9513 0
-5489 791 0
-9513 -791 5489 0
-5490 9513 0
-5490 804 0
-9513 -804 5490 0
-5491 9513 0
-5491 816 0
-9513 -816 5491 0
-5492 9513 0
-5492 827 0
-9513 -827 5492 0
-5493 9513 0
-5493 837 0
-9513 -837 5493 0
-5494 9513 0
-5494 846 0
-9513 -846 5494 0
-5495 9513 0
-5495 854 0
-9513 -854 5495 0
-5496 9513 0
-5496 861 0
-9513 -861 5496 0
-5497 9513 0
-5497 867 0
-9513 -867 5497 0
-5498 9513 0
-5498 872 0
-9513 -872 5498 0
-5499 9513 0
-5499 876 0
-9513 -876 5499 0
-5500 9513 0
-5500 879 0
-9513 -879 5500 0
-5501 9513 0
-5501 881 0
-9513 -881 5501 0
-5502 9513 0
-5502 882 0
-9513 -882 5502 0
-5503 9514 0
-5503 673 0
-9514 -673 5503 0
-5504 9514 0
-5504 674 0
-9514 -674 5504 0
-5505 9514 0
-5505 675 0
-9514 -675 5505 0
-5506 9514 0
-5506 676 0
-9514 -676 5506 0
-5507 9514 0
-5507 677 0
-9514 -677 5507 0
-5508 9514 0
-5508 678 0
-9514 -678 5508 0
-5509 9514 0
-5509 679 0
-9514 -679 5509 0
-5510 9514 0
-5510 680 0
-9514 -680 5510 0
-5511 9514 0
-5511 681 0
-9514 -681 5511 0
-5512 9514 0
-5512 682 0
-9514 -682 5512 0
-5513 9514 0
-5513 683 0
-9514 -683 5513 0
-5514 9514 0
-5514 684 0
-9514 -684 5514 0
-5515 9514 0
-5515 685 0
-9514 -685 5515 0
-5516 9514 0
-5516 686 0
-9514 -686 5516 0
-5517 9514 0
-5517 687 0
-9514 -687 5517 0
-5518 9514 0
-5518 688 0
-9514 -688 5518 0
-5519 9514 0
-5519 689 0
-9514 -689 5519 0
-5520 9514 0
-5520 690 0
-9514 -690 5520 0
-5521 9514 0
-5521 691 0
-9514 -691 5521 0
-5522 9514 0
-5522 692 0
-9514 -692 5522 0
-5523 9515 0
-5523 673 0
-9515 -673 5523 0
-5524 9515 0
-5524 693 0
-9515 -693 5524 0
-5525 9515 0
-5525 694 0
-9515 -694 5525 0
-5526 9515 0
-5526 695 0
-9515 -695 5526 0
-5527 9515 0
-5527 696 0
-9515 -696 5527 0
-5528 9515 0
-5528 697 0
-9515 -697 5528 0
-5529 9515 0
-5529 698 0
-9515 -698 5529 0
-5530 9515 0
-5530 699 0
-9515 -699 5530 0
-5531 9515 0
-5531 700 0
-9515 -700 5531 0
-5532 9515 0
-5532 701 0
-9515 -701 5532 0
-5533 9515 0
-5533 702 0
-9515 -702 5533 0
-5534 9515 0
-5534 703 0
-9515 -703 5534 0
-5535 9515 0
-5535 704 0
-9515 -704 5535 0
-5536 9515 0
-5536 705 0
-9515 -705 5536 0
-5537 9515 0
-5537 706 0
-9515 -706 5537 0
-5538 9515 0
-5538 707 0
-9515 -707 5538 0
-5539 9515 0
-5539 708 0
-9515 -708 5539 0
-5540 9515 0
-5540 709 0
-9515 -709 5540 0
-5541 9515 0
-5541 710 0
-9515 -710 5541 0
-5542 9515 0
-5542 711 0
-9515 -711 5542 0
-5543 9516 0
-5543 674 0
-9516 -674 5543 0
-5544 9516 0
-5544 693 0
-9516 -693 5544 0
-5545 9516 0
-5545 712 0
-9516 -712 5545 0
-5546 9516 0
-5546 713 0
-9516 -713 5546 0
-5547 9516 0
-5547 714 0
-9516 -714 5547 0
-5548 9516 0
-5548 715 0
-9516 -715 5548 0
-5549 9516 0
-5549 716 0
-9516 -716 5549 0
-5550 9516 0
-5550 717 0
-9516 -717 5550 0
-5551 9516 0
-5551 718 0
-9516 -718 5551 0
-5552 9516 0
-5552 719 0
-9516 -719 5552 0
-5553 9516 0
-5553 720 0
-9516 -720 5553 0
-5554 9516 0
-5554 721 0
-9516 -721 5554 0
-5555 9516 0
-5555 722 0
-9516 -722 5555 0
-5556 9516 0
-5556 723 0
-9516 -723 5556 0
-5557 9516 0
-5557 724 0
-9516 -724 5557 0
-5558 9516 0
-5558 725 0
-9516 -725 5558 0
-5559 9516 0
-5559 726 0
-9516 -726 5559 0
-5560 9516 0
-5560 727 0
-9516 -727 5560 0
-5561 9516 0
-5561 728 0
-9516 -728 5561 0
-5562 9516 0
-5562 729 0
-9516 -729 5562 0
-5563 9517 0
-5563 675 0
-9517 -675 5563 0
-5564 9517 0
-5564 694 0
-9517 -694 5564 0
-5565 9517 0
-5565 712 0
-9517 -712 5565 0
-5566 9517 0
-5566 730 0
-9517 -730 5566 0
-5567 9517 0
-5567 731 0
-9517 -731 5567 0
-5568 9517 0
-5568 732 0
-9517 -732 5568 0
-5569 9517 0
-5569 733 0
-9517 -733 5569 0
-5570 9517 0
-5570 734 0
-9517 -734 5570 0
-5571 9517 0
-5571 735 0
-9517 -735 5571 0
-5572 9517 0
-5572 736 0
-9517 -736 5572 0
-5573 9517 0
-5573 737 0
-9517 -737 5573 0
-5574 9517 0
-5574 738 0
-9517 -738 5574 0
-5575 9517 0
-5575 739 0
-9517 -739 5575 0
-5576 9517 0
-5576 740 0
-9517 -740 5576 0
-5577 9517 0
-5577 741 0
-9517 -741 5577 0
-5578 9517 0
-5578 742 0
-9517 -742 5578 0
-5579 9517 0
-5579 743 0
-9517 -743 5579 0
-5580 9517 0
-5580 744 0
-9517 -744 5580 0
-5581 9517 0
-5581 745 0
-9517 -745 5581 0
-5582 9517 0
-5582 746 0
-9517 -746 5582 0
-5583 9518 0
-5583 676 0
-9518 -676 5583 0
-5584 9518 0
-5584 695 0
-9518 -695 5584 0
-5585 9518 0
-5585 713 0
-9518 -713 5585 0
-5586 9518 0
-5586 730 0
-9518 -730 5586 0
-5587 9518 0
-5587 747 0
-9518 -747 5587 0
-5588 9518 0
-5588 748 0
-9518 -748 5588 0
-5589 9518 0
-5589 749 0
-9518 -749 5589 0
-5590 9518 0
-5590 750 0
-9518 -750 5590 0
-5591 9518 0
-5591 751 0
-9518 -751 5591 0
-5592 9518 0
-5592 752 0
-9518 -752 5592 0
-5593 9518 0
-5593 753 0
-9518 -753 5593 0
-5594 9518 0
-5594 754 0
-9518 -754 5594 0
-5595 9518 0
-5595 755 0
-9518 -755 5595 0
-5596 9518 0
-5596 756 0
-9518 -756 5596 0
-5597 9518 0
-5597 757 0
-9518 -757 5597 0
-5598 9518 0
-5598 758 0
-9518 -758 5598 0
-5599 9518 0
-5599 759 0
-9518 -759 5599 0
-5600 9518 0
-5600 760 0
-9518 -760 5600 0
-5601 9518 0
-5601 761 0
-9518 -761 5601 0
-5602 9518 0
-5602 762 0
-9518 -762 5602 0
-5603 9519 0
-5603 677 0
-9519 -677 5603 0
-5604 9519 0
-5604 696 0
-9519 -696 5604 0
-5605 9519 0
-5605 714 0
-9519 -714 5605 0
-5606 9519 0
-5606 731 0
-9519 -731 5606 0
-5607 9519 0
-5607 747 0
-9519 -747 5607 0
-5608 9519 0
-5608 763 0
-9519 -763 5608 0
-5609 9519 0
-5609 764 0
-9519 -764 5609 0
-5610 9519 0
-5610 765 0
-9519 -765 5610 0
-5611 9519 0
-5611 766 0
-9519 -766 5611 0
-5612 9519 0
-5612 767 0
-9519 -767 5612 0
-5613 9519 0
-5613 768 0
-9519 -768 5613 0
-5614 9519 0
-5614 769 0
-9519 -769 5614 0
-5615 9519 0
-5615 770 0
-9519 -770 5615 0
-5616 9519 0
-5616 771 0
-9519 -771 5616 0
-5617 9519 0
-5617 772 0
-9519 -772 5617 0
-5618 9519 0
-5618 773 0
-9519 -773 5618 0
-5619 9519 0
-5619 774 0
-9519 -774 5619 0
-5620 9519 0
-5620 775 0
-9519 -775 5620 0
-5621 9519 0
-5621 776 0
-9519 -776 5621 0
-5622 9519 0
-5622 777 0
-9519 -777 5622 0
-5623 9520 0
-5623 678 0
-9520 -678 5623 0
-5624 9520 0
-5624 697 0
-9520 -697 5624 0
-5625 9520 0
-5625 715 0
-9520 -715 5625 0
-5626 9520 0
-5626 732 0
-9520 -732 5626 0
-5627 9520 0
-5627 748 0
-9520 -748 5627 0
-5628 9520 0
-5628 763 0
-9520 -763 5628 0
-5629 9520 0
-5629 778 0
-9520 -778 5629 0
-5630 9520 0
-5630 779 0
-9520 -779 5630 0
-5631 9520 0
-5631 780 0
-9520 -780 5631 0
-5632 9520 0
-5632 781 0
-9520 -781 5632 0
-5633 9520 0
-5633 782 0
-9520 -782 5633 0
-5634 9520 0
-5634 783 0
-9520 -783 5634 0
-5635 9520 0
-5635 784 0
-9520 -784 5635 0
-5636 9520 0
-5636 785 0
-9520 -785 5636 0
-5637 9520 0
-5637 786 0
-9520 -786 5637 0
-5638 9520 0
-5638 787 0
-9520 -787 5638 0
-5639 9520 0
-5639 788 0
-9520 -788 5639 0
-5640 9520 0
-5640 789 0
-9520 -789 5640 0
-5641 9520 0
-5641 790 0
-9520 -790 5641 0
-5642 9520 0
-5642 791 0
-9520 -791 5642 0
-5643 9521 0
-5643 679 0
-9521 -679 5643 0
-5644 9521 0
-5644 698 0
-9521 -698 5644 0
-5645 9521 0
-5645 716 0
-9521 -716 5645 0
-5646 9521 0
-5646 733 0
-9521 -733 5646 0
-5647 9521 0
-5647 749 0
-9521 -749 5647 0
-5648 9521 0
-5648 764 0
-9521 -764 5648 0
-5649 9521 0
-5649 778 0
-9521 -778 5649 0
-5650 9521 0
-5650 792 0
-9521 -792 5650 0
-5651 9521 0
-5651 793 0
-9521 -793 5651 0
-5652 9521 0
-5652 794 0
-9521 -794 5652 0
-5653 9521 0
-5653 795 0
-9521 -795 5653 0
-5654 9521 0
-5654 796 0
-9521 -796 5654 0
-5655 9521 0
-5655 797 0
-9521 -797 5655 0
-5656 9521 0
-5656 798 0
-9521 -798 5656 0
-5657 9521 0
-5657 799 0
-9521 -799 5657 0
-5658 9521 0
-5658 800 0
-9521 -800 5658 0
-5659 9521 0
-5659 801 0
-9521 -801 5659 0
-5660 9521 0
-5660 802 0
-9521 -802 5660 0
-5661 9521 0
-5661 803 0
-9521 -803 5661 0
-5662 9521 0
-5662 804 0
-9521 -804 5662 0
-5663 9522 0
-5663 680 0
-9522 -680 5663 0
-5664 9522 0
-5664 699 0
-9522 -699 5664 0
-5665 9522 0
-5665 717 0
-9522 -717 5665 0
-5666 9522 0
-5666 734 0
-9522 -734 5666 0
-5667 9522 0
-5667 750 0
-9522 -750 5667 0
-5668 9522 0
-5668 765 0
-9522 -765 5668 0
-5669 9522 0
-5669 779 0
-9522 -779 5669 0
-5670 9522 0
-5670 792 0
-9522 -792 5670 0
-5671 9522 0
-5671 805 0
-9522 -805 5671 0
-5672 9522 0
-5672 806 0
-9522 -806 5672 0
-5673 9522 0
-5673 807 0
-9522 -807 5673 0
-5674 9522 0
-5674 808 0
-9522 -808 5674 0
-5675 9522 0
-5675 809 0
-9522 -809 5675 0
-5676 9522 0
-5676 810 0
-9522 -810 5676 0
-5677 9522 0
-5677 811 0
-9522 -811 5677 0
-5678 9522 0
-5678 812 0
-9522 -812 5678 0
-5679 9522 0
-5679 813 0
-9522 -813 5679 0
-5680 9522 0
-5680 814 0
-9522 -814 5680 0
-5681 9522 0
-5681 815 0
-9522 -815 5681 0
-5682 9522 0
-5682 816 0
-9522 -816 5682 0
-5683 9523 0
-5683 681 0
-9523 -681 5683 0
-5684 9523 0
-5684 700 0
-9523 -700 5684 0
-5685 9523 0
-5685 718 0
-9523 -718 5685 0
-5686 9523 0
-5686 735 0
-9523 -735 5686 0
-5687 9523 0
-5687 751 0
-9523 -751 5687 0
-5688 9523 0
-5688 766 0
-9523 -766 5688 0
-5689 9523 0
-5689 780 0
-9523 -780 5689 0
-5690 9523 0
-5690 793 0
-9523 -793 5690 0
-5691 9523 0
-5691 805 0
-9523 -805 5691 0
-5692 9523 0
-5692 817 0
-9523 -817 5692 0
-5693 9523 0
-5693 818 0
-9523 -818 5693 0
-5694 9523 0
-5694 819 0
-9523 -819 5694 0
-5695 9523 0
-5695 820 0
-9523 -820 5695 0
-5696 9523 0
-5696 821 0
-9523 -821 5696 0
-5697 9523 0
-5697 822 0
-9523 -822 5697 0
-5698 9523 0
-5698 823 0
-9523 -823 5698 0
-5699 9523 0
-5699 824 0
-9523 -824 5699 0
-5700 9523 0
-5700 825 0
-9523 -825 5700 0
-5701 9523 0
-5701 826 0
-9523 -826 5701 0
-5702 9523 0
-5702 827 0
-9523 -827 5702 0
-5703 9524 0
-5703 682 0
-9524 -682 5703 0
-5704 9524 0
-5704 701 0
-9524 -701 5704 0
-5705 9524 0
-5705 719 0
-9524 -719 5705 0
-5706 9524 0
-5706 736 0
-9524 -736 5706 0
-5707 9524 0
-5707 752 0
-9524 -752 5707 0
-5708 9524 0
-5708 767 0
-9524 -767 5708 0
-5709 9524 0
-5709 781 0
-9524 -781 5709 0
-5710 9524 0
-5710 794 0
-9524 -794 5710 0
-5711 9524 0
-5711 806 0
-9524 -806 5711 0
-5712 9524 0
-5712 817 0
-9524 -817 5712 0
-5713 9524 0
-5713 828 0
-9524 -828 5713 0
-5714 9524 0
-5714 829 0
-9524 -829 5714 0
-5715 9524 0
-5715 830 0
-9524 -830 5715 0
-5716 9524 0
-5716 831 0
-9524 -831 5716 0
-5717 9524 0
-5717 832 0
-9524 -832 5717 0
-5718 9524 0
-5718 833 0
-9524 -833 5718 0
-5719 9524 0
-5719 834 0
-9524 -834 5719 0
-5720 9524 0
-5720 835 0
-9524 -835 5720 0
-5721 9524 0
-5721 836 0
-9524 -836 5721 0
-5722 9524 0
-5722 837 0
-9524 -837 5722 0
-5723 9525 0
-5723 683 0
-9525 -683 5723 0
-5724 9525 0
-5724 702 0
-9525 -702 5724 0
-5725 9525 0
-5725 720 0
-9525 -720 5725 0
-5726 9525 0
-5726 737 0
-9525 -737 5726 0
-5727 9525 0
-5727 753 0
-9525 -753 5727 0
-5728 9525 0
-5728 768 0
-9525 -768 5728 0
-5729 9525 0
-5729 782 0
-9525 -782 5729 0
-5730 9525 0
-5730 795 0
-9525 -795 5730 0
-5731 9525 0
-5731 807 0
-9525 -807 5731 0
-5732 9525 0
-5732 818 0
-9525 -818 5732 0
-5733 9525 0
-5733 828 0
-9525 -828 5733 0
-5734 9525 0
-5734 838 0
-9525 -838 5734 0
-5735 9525 0
-5735 839 0
-9525 -839 5735 0
-5736 9525 0
-5736 840 0
-9525 -840 5736 0
-5737 9525 0
-5737 841 0
-9525 -841 5737 0
-5738 9525 0
-5738 842 0
-9525 -842 5738 0
-5739 9525 0
-5739 843 0
-9525 -843 5739 0
-5740 9525 0
-5740 844 0
-9525 -844 5740 0
-5741 9525 0
-5741 845 0
-9525 -845 5741 0
-5742 9525 0
-5742 846 0
-9525 -846 5742 0
-5743 9526 0
-5743 684 0
-9526 -684 5743 0
-5744 9526 0
-5744 703 0
-9526 -703 5744 0
-5745 9526 0
-5745 721 0
-9526 -721 5745 0
-5746 9526 0
-5746 738 0
-9526 -738 5746 0
-5747 9526 0
-5747 754 0
-9526 -754 5747 0
-5748 9526 0
-5748 769 0
-9526 -769 5748 0
-5749 9526 0
-5749 783 0
-9526 -783 5749 0
-5750 9526 0
-5750 796 0
-9526 -796 5750 0
-5751 9526 0
-5751 808 0
-9526 -808 5751 0
-5752 9526 0
-5752 819 0
-9526 -819 5752 0
-5753 9526 0
-5753 829 0
-9526 -829 5753 0
-5754 9526 0
-5754 838 0
-9526 -838 5754 0
-5755 9526 0
-5755 847 0
-9526 -847 5755 0
-5756 9526 0
-5756 848 0
-9526 -848 5756 0
-5757 9526 0
-5757 849 0
-9526 -849 5757 0
-5758 9526 0
-5758 850 0
-9526 -850 5758 0
-5759 9526 0
-5759 851 0
-9526 -851 5759 0
-5760 9526 0
-5760 852 0
-9526 -852 5760 0
-5761 9526 0
-5761 853 0
-9526 -853 5761 0
-5762 9526 0
-5762 854 0
-9526 -854 5762 0
-5763 9527 0
-5763 685 0
-9527 -685 5763 0
-5764 9527 0
-5764 704 0
-9527 -704 5764 0
-5765 9527 0
-5765 722 0
-9527 -722 5765 0
-5766 9527 0
-5766 739 0
-9527 -739 5766 0
-5767 9527 0
-5767 755 0
-9527 -755 5767 0
-5768 9527 0
-5768 770 0
-9527 -770 5768 0
-5769 9527 0
-5769 784 0
-9527 -784 5769 0
-5770 9527 0
-5770 797 0
-9527 -797 5770 0
-5771 9527 0
-5771 809 0
-9527 -809 5771 0
-5772 9527 0
-5772 820 0
-9527 -820 5772 0
-5773 9527 0
-5773 830 0
-9527 -830 5773 0
-5774 9527 0
-5774 839 0
-9527 -839 5774 0
-5775 9527 0
-5775 847 0
-9527 -847 5775 0
-5776 9527 0
-5776 855 0
-9527 -855 5776 0
-5777 9527 0
-5777 856 0
-9527 -856 5777 0
-5778 9527 0
-5778 857 0
-9527 -857 5778 0
-5779 9527 0
-5779 858 0
-9527 -858 5779 0
-5780 9527 0
-5780 859 0
-9527 -859 5780 0
-5781 9527 0
-5781 860 0
-9527 -860 5781 0
-5782 9527 0
-5782 861 0
-9527 -861 5782 0
-5783 9528 0
-5783 686 0
-9528 -686 5783 0
-5784 9528 0
-5784 705 0
-9528 -705 5784 0
-5785 9528 0
-5785 723 0
-9528 -723 5785 0
-5786 9528 0
-5786 740 0
-9528 -740 5786 0
-5787 9528 0
-5787 756 0
-9528 -756 5787 0
-5788 9528 0
-5788 771 0
-9528 -771 5788 0
-5789 9528 0
-5789 785 0
-9528 -785 5789 0
-5790 9528 0
-5790 798 0
-9528 -798 5790 0
-5791 9528 0
-5791 810 0
-9528 -810 5791 0
-5792 9528 0
-5792 821 0
-9528 -821 5792 0
-5793 9528 0
-5793 831 0
-9528 -831 5793 0
-5794 9528 0
-5794 840 0
-9528 -840 5794 0
-5795 9528 0
-5795 848 0
-9528 -848 5795 0
-5796 9528 0
-5796 855 0
-9528 -855 5796 0
-5797 9528 0
-5797 862 0
-9528 -862 5797 0
-5798 9528 0
-5798 863 0
-9528 -863 5798 0
-5799 9528 0
-5799 864 0
-9528 -864 5799 0
-5800 9528 0
-5800 865 0
-9528 -865 5800 0
-5801 9528 0
-5801 866 0
-9528 -866 5801 0
-5802 9528 0
-5802 867 0
-9528 -867 5802 0
-5803 9529 0
-5803 687 0
-9529 -687 5803 0
-5804 9529 0
-5804 706 0
-9529 -706 5804 0
-5805 9529 0
-5805 724 0
-9529 -724 5805 0
-5806 9529 0
-5806 741 0
-9529 -741 5806 0
-5807 9529 0
-5807 757 0
-9529 -757 5807 0
-5808 9529 0
-5808 772 0
-9529 -772 5808 0
-5809 9529 0
-5809 786 0
-9529 -786 5809 0
-5810 9529 0
-5810 799 0
-9529 -799 5810 0
-5811 9529 0
-5811 811 0
-9529 -811 5811 0
-5812 9529 0
-5812 822 0
-9529 -822 5812 0
-5813 9529 0
-5813 832 0
-9529 -832 5813 0
-5814 9529 0
-5814 841 0
-9529 -841 5814 0
-5815 9529 0
-5815 849 0
-9529 -849 5815 0
-5816 9529 0
-5816 856 0
-9529 -856 5816 0
-5817 9529 0
-5817 862 0
-9529 -862 5817 0
-5818 9529 0
-5818 868 0
-9529 -868 5818 0
-5819 9529 0
-5819 869 0
-9529 -869 5819 0
-5820 9529 0
-5820 870 0
-9529 -870 5820 0
-5821 9529 0
-5821 871 0
-9529 -871 5821 0
-5822 9529 0
-5822 872 0
-9529 -872 5822 0
-5823 9530 0
-5823 688 0
-9530 -688 5823 0
-5824 9530 0
-5824 707 0
-9530 -707 5824 0
-5825 9530 0
-5825 725 0
-9530 -725 5825 0
-5826 9530 0
-5826 742 0
-9530 -742 5826 0
-5827 9530 0
-5827 758 0
-9530 -758 5827 0
-5828 9530 0
-5828 773 0
-9530 -773 5828 0
-5829 9530 0
-5829 787 0
-9530 -787 5829 0
-5830 9530 0
-5830 800 0
-9530 -800 5830 0
-5831 9530 0
-5831 812 0
-9530 -812 5831 0
-5832 9530 0
-5832 823 0
-9530 -823 5832 0
-5833 9530 0
-5833 833 0
-9530 -833 5833 0
-5834 9530 0
-5834 842 0
-9530 -842 5834 0
-5835 9530 0
-5835 850 0
-9530 -850 5835 0
-5836 9530 0
-5836 857 0
-9530 -857 5836 0
-5837 9530 0
-5837 863 0
-9530 -863 5837 0
-5838 9530 0
-5838 868 0
-9530 -868 5838 0
-5839 9530 0
-5839 873 0
-9530 -873 5839 0
-5840 9530 0
-5840 874 0
-9530 -874 5840 0
-5841 9530 0
-5841 875 0
-9530 -875 5841 0
-5842 9530 0
-5842 876 0
-9530 -876 5842 0
-5843 9531 0
-5843 689 0
-9531 -689 5843 0
-5844 9531 0
-5844 708 0
-9531 -708 5844 0
-5845 9531 0
-5845 726 0
-9531 -726 5845 0
-5846 9531 0
-5846 743 0
-9531 -743 5846 0
-5847 9531 0
-5847 759 0
-9531 -759 5847 0
-5848 9531 0
-5848 774 0
-9531 -774 5848 0
-5849 9531 0
-5849 788 0
-9531 -788 5849 0
-5850 9531 0
-5850 801 0
-9531 -801 5850 0
-5851 9531 0
-5851 813 0
-9531 -813 5851 0
-5852 9531 0
-5852 824 0
-9531 -824 5852 0
-5853 9531 0
-5853 834 0
-9531 -834 5853 0
-5854 9531 0
-5854 843 0
-9531 -843 5854 0
-5855 9531 0
-5855 851 0
-9531 -851 5855 0
-5856 9531 0
-5856 858 0
-9531 -858 5856 0
-5857 9531 0
-5857 864 0
-9531 -864 5857 0
-5858 9531 0
-5858 869 0
-9531 -869 5858 0
-5859 9531 0
-5859 873 0
-9531 -873 5859 0
-5860 9531 0
-5860 877 0
-9531 -877 5860 0
-5861 9531 0
-5861 878 0
-9531 -878 5861 0
-5862 9531 0
-5862 879 0
-9531 -879 5862 0
-5863 9532 0
-5863 690 0
-9532 -690 5863 0
-5864 9532 0
-5864 709 0
-9532 -709 5864 0
-5865 9532 0
-5865 727 0
-9532 -727 5865 0
-5866 9532 0
-5866 744 0
-9532 -744 5866 0
-5867 9532 0
-5867 760 0
-9532 -760 5867 0
-5868 9532 0
-5868 775 0
-9532 -775 5868 0
-5869 9532 0
-5869 789 0
-9532 -789 5869 0
-5870 9532 0
-5870 802 0
-9532 -802 5870 0
-5871 9532 0
-5871 814 0
-9532 -814 5871 0
-5872 9532 0
-5872 825 0
-9532 -825 5872 0
-5873 9532 0
-5873 835 0
-9532 -835 5873 0
-5874 9532 0
-5874 844 0
-9532 -844 5874 0
-5875 9532 0
-5875 852 0
-9532 -852 5875 0
-5876 9532 0
-5876 859 0
-9532 -859 5876 0
-5877 9532 0
-5877 865 0
-9532 -865 5877 0
-5878 9532 0
-5878 870 0
-9532 -870 5878 0
-5879 9532 0
-5879 874 0
-9532 -874 5879 0
-5880 9532 0
-5880 877 0
-9532 -877 5880 0
-5881 9532 0
-5881 880 0
-9532 -880 5881 0
-5882 9532 0
-5882 881 0
-9532 -881 5882 0
-5883 9533 0
-5883 691 0
-9533 -691 5883 0
-5884 9533 0
-5884 710 0
-9533 -710 5884 0
-5885 9533 0
-5885 728 0
-9533 -728 5885 0
-5886 9533 0
-5886 745 0
-9533 -745 5886 0
-5887 9533 0
-5887 761 0
-9533 -761 5887 0
-5888 9533 0
-5888 776 0
-9533 -776 5888 0
-5889 9533 0
-5889 790 0
-9533 -790 5889 0
-5890 9533 0
-5890 803 0
-9533 -803 5890 0
-5891 9533 0
-5891 815 0
-9533 -815 5891 0
-5892 9533 0
-5892 826 0
-9533 -826 5892 0
-5893 9533 0
-5893 836 0
-9533 -836 5893 0
-5894 9533 0
-5894 845 0
-9533 -845 5894 0
-5895 9533 0
-5895 853 0
-9533 -853 5895 0
-5896 9533 0
-5896 860 0
-9533 -860 5896 0
-5897 9533 0
-5897 866 0
-9533 -866 5897 0
-5898 9533 0
-5898 871 0
-9533 -871 5898 0
-5899 9533 0
-5899 875 0
-9533 -875 5899 0
-5900 9533 0
-5900 878 0
-9533 -878 5900 0
-5901 9533 0
-5901 880 0
-9533 -880 5901 0
-5902 9533 0
-5902 882 0
-9533 -882 5902 0
-5903 9534 0
-5903 692 0
-9534 -692 5903 0
-5904 9534 0
-5904 711 0
-9534 -711 5904 0
-5905 9534 0
-5905 729 0
-9534 -729 5905 0
-5906 9534 0
-5906 746 0
-9534 -746 5906 0
-5907 9534 0
-5907 762 0
-9534 -762 5907 0
-5908 9534 0
-5908 777 0
-9534 -777 5908 0
-5909 9534 0
-5909 791 0
-9534 -791 5909 0
-5910 9534 0
-5910 804 0
-9534 -804 5910 0
-5911 9534 0
-5911 816 0
-9534 -816 5911 0
-5912 9534 0
-5912 827 0
-9534 -827 5912 0
-5913 9534 0
-5913 837 0
-9534 -837 5913 0
-5914 9534 0
-5914 846 0
-9534 -846 5914 0
-5915 9534 0
-5915 854 0
-9534 -854 5915 0
-5916 9534 0
-5916 861 0
-9534 -861 5916 0
-5917 9534 0
-5917 867 0
-9534 -867 5917 0
-5918 9534 0
-5918 872 0
-9534 -872 5918 0
-5919 9534 0
-5919 876 0
-9534 -876 5919 0
-5920 9534 0
-5920 879 0
-9534 -879 5920 0
-5921 9534 0
-5921 881 0
-9534 -881 5921 0
-5922 9534 0
-5922 882 0
-9534 -882 5922 0
-5923 9535 0
-5923 673 0
-9535 -673 5923 0
-5924 9535 0
-5924 674 0
-9535 -674 5924 0
-5925 9535 0
-5925 675 0
-9535 -675 5925 0
-5926 9535 0
-5926 676 0
-9535 -676 5926 0
-5927 9535 0
-5927 677 0
-9535 -677 5927 0
-5928 9535 0
-5928 678 0
-9535 -678 5928 0
-5929 9535 0
-5929 679 0
-9535 -679 5929 0
-5930 9535 0
-5930 680 0
-9535 -680 5930 0
-5931 9535 0
-5931 681 0
-9535 -681 5931 0
-5932 9535 0
-5932 682 0
-9535 -682 5932 0
-5933 9535 0
-5933 683 0
-9535 -683 5933 0
-5934 9535 0
-5934 684 0
-9535 -684 5934 0
-5935 9535 0
-5935 685 0
-9535 -685 5935 0
-5936 9535 0
-5936 686 0
-9535 -686 5936 0
-5937 9535 0
-5937 687 0
-9535 -687 5937 0
-5938 9535 0
-5938 688 0
-9535 -688 5938 0
-5939 9535 0
-5939 689 0
-9535 -689 5939 0
-5940 9535 0
-5940 690 0
-9535 -690 5940 0
-5941 9535 0
-5941 691 0
-9535 -691 5941 0
-5942 9535 0
-5942 692 0
-9535 -692 5942 0
-5943 9536 0
-5943 673 0
-9536 -673 5943 0
-5944 9536 0
-5944 693 0
-9536 -693 5944 0
-5945 9536 0
-5945 694 0
-9536 -694 5945 0
-5946 9536 0
-5946 695 0
-9536 -695 5946 0
-5947 9536 0
-5947 696 0
-9536 -696 5947 0
-5948 9536 0
-5948 697 0
-9536 -697 5948 0
-5949 9536 0
-5949 698 0
-9536 -698 5949 0
-5950 9536 0
-5950 699 0
-9536 -699 5950 0
-5951 9536 0
-5951 700 0
-9536 -700 5951 0
-5952 9536 0
-5952 701 0
-9536 -701 5952 0
-5953 9536 0
-5953 702 0
-9536 -702 5953 0
-5954 9536 0
-5954 703 0
-9536 -703 5954 0
-5955 9536 0
-5955 704 0
-9536 -704 5955 0
-5956 9536 0
-5956 705 0
-9536 -705 5956 0
-5957 9536 0
-5957 706 0
-9536 -706 5957 0
-5958 9536 0
-5958 707 0
-9536 -707 5958 0
-5959 9536 0
-5959 708 0
-9536 -708 5959 0
-5960 9536 0
-5960 709 0
-9536 -709 5960 0
-5961 9536 0
-5961 710 0
-9536 -710 5961 0
-5962 9536 0
-5962 711 0
-9536 -711 5962 0
-5963 9537 0
-5963 674 0
-9537 -674 5963 0
-5964 9537 0
-5964 693 0
-9537 -693 5964 0
-5965 9537 0
-5965 712 0
-9537 -712 5965 0
-5966 9537 0
-5966 713 0
-9537 -713 5966 0
-5967 9537 0
-5967 714 0
-9537 -714 5967 0
-5968 9537 0
-5968 715 0
-9537 -715 5968 0
-5969 9537 0
-5969 716 0
-9537 -716 5969 0
-5970 9537 0
-5970 717 0
-9537 -717 5970 0
-5971 9537 0
-5971 718 0
-9537 -718 5971 0
-5972 9537 0
-5972 719 0
-9537 -719 5972 0
-5973 9537 0
-5973 720 0
-9537 -720 5973 0
-5974 9537 0
-5974 721 0
-9537 -721 5974 0
-5975 9537 0
-5975 722 0
-9537 -722 5975 0
-5976 9537 0
-5976 723 0
-9537 -723 5976 0
-5977 9537 0
-5977 724 0
-9537 -724 5977 0
-5978 9537 0
-5978 725 0
-9537 -725 5978 0
-5979 9537 0
-5979 726 0
-9537 -726 5979 0
-5980 9537 0
-5980 727 0
-9537 -727 5980 0
-5981 9537 0
-5981 728 0
-9537 -728 5981 0
-5982 9537 0
-5982 729 0
-9537 -729 5982 0
-5983 9538 0
-5983 675 0
-9538 -675 5983 0
-5984 9538 0
-5984 694 0
-9538 -694 5984 0
-5985 9538 0
-5985 712 0
-9538 -712 5985 0
-5986 9538 0
-5986 730 0
-9538 -730 5986 0
-5987 9538 0
-5987 731 0
-9538 -731 5987 0
-5988 9538 0
-5988 732 0
-9538 -732 5988 0
-5989 9538 0
-5989 733 0
-9538 -733 5989 0
-5990 9538 0
-5990 734 0
-9538 -734 5990 0
-5991 9538 0
-5991 735 0
-9538 -735 5991 0
-5992 9538 0
-5992 736 0
-9538 -736 5992 0
-5993 9538 0
-5993 737 0
-9538 -737 5993 0
-5994 9538 0
-5994 738 0
-9538 -738 5994 0
-5995 9538 0
-5995 739 0
-9538 -739 5995 0
-5996 9538 0
-5996 740 0
-9538 -740 5996 0
-5997 9538 0
-5997 741 0
-9538 -741 5997 0
-5998 9538 0
-5998 742 0
-9538 -742 5998 0
-5999 9538 0
-5999 743 0
-9538 -743 5999 0
-6000 9538 0
-6000 744 0
-9538 -744 6000 0
-6001 9538 0
-6001 745 0
-9538 -745 6001 0
-6002 9538 0
-6002 746 0
-9538 -746 6002 0
-6003 9539 0
-6003 676 0
-9539 -676 6003 0
-6004 9539 0
-6004 695 0
-9539 -695 6004 0
-6005 9539 0
-6005 713 0
-9539 -713 6005 0
-6006 9539 0
-6006 730 0
-9539 -730 6006 0
-6007 9539 0
-6007 747 0
-9539 -747 6007 0
-6008 9539 0
-6008 748 0
-9539 -748 6008 0
-6009 9539 0
-6009 749 0
-9539 -749 6009 0
-6010 9539 0
-6010 750 0
-9539 -750 6010 0
-6011 9539 0
-6011 751 0
-9539 -751 6011 0
-6012 9539 0
-6012 752 0
-9539 -752 6012 0
-6013 9539 0
-6013 753 0
-9539 -753 6013 0
-6014 9539 0
-6014 754 0
-9539 -754 6014 0
-6015 9539 0
-6015 755 0
-9539 -755 6015 0
-6016 9539 0
-6016 756 0
-9539 -756 6016 0
-6017 9539 0
-6017 757 0
-9539 -757 6017 0
-6018 9539 0
-6018 758 0
-9539 -758 6018 0
-6019 9539 0
-6019 759 0
-9539 -759 6019 0
-6020 9539 0
-6020 760 0
-9539 -760 6020 0
-6021 9539 0
-6021 761 0
-9539 -761 6021 0
-6022 9539 0
-6022 762 0
-9539 -762 6022 0
-6023 9540 0
-6023 677 0
-9540 -677 6023 0
-6024 9540 0
-6024 696 0
-9540 -696 6024 0
-6025 9540 0
-6025 714 0
-9540 -714 6025 0
-6026 9540 0
-6026 731 0
-9540 -731 6026 0
-6027 9540 0
-6027 747 0
-9540 -747 6027 0
-6028 9540 0
-6028 763 0
-9540 -763 6028 0
-6029 9540 0
-6029 764 0
-9540 -764 6029 0
-6030 9540 0
-6030 765 0
-9540 -765 6030 0
-6031 9540 0
-6031 766 0
-9540 -766 6031 0
-6032 9540 0
-6032 767 0
-9540 -767 6032 0
-6033 9540 0
-6033 768 0
-9540 -768 6033 0
-6034 9540 0
-6034 769 0
-9540 -769 6034 0
-6035 9540 0
-6035 770 0
-9540 -770 6035 0
-6036 9540 0
-6036 771 0
-9540 -771 6036 0
-6037 9540 0
-6037 772 0
-9540 -772 6037 0
-6038 9540 0
-6038 773 0
-9540 -773 6038 0
-6039 9540 0
-6039 774 0
-9540 -774 6039 0
-6040 9540 0
-6040 775 0
-9540 -775 6040 0
-6041 9540 0
-6041 776 0
-9540 -776 6041 0
-6042 9540 0
-6042 777 0
-9540 -777 6042 0
-6043 9541 0
-6043 678 0
-9541 -678 6043 0
-6044 9541 0
-6044 697 0
-9541 -697 6044 0
-6045 9541 0
-6045 715 0
-9541 -715 6045 0
-6046 9541 0
-6046 732 0
-9541 -732 6046 0
-6047 9541 0
-6047 748 0
-9541 -748 6047 0
-6048 9541 0
-6048 763 0
-9541 -763 6048 0
-6049 9541 0
-6049 778 0
-9541 -778 6049 0
-6050 9541 0
-6050 779 0
-9541 -779 6050 0
-6051 9541 0
-6051 780 0
-9541 -780 6051 0
-6052 9541 0
-6052 781 0
-9541 -781 6052 0
-6053 9541 0
-6053 782 0
-9541 -782 6053 0
-6054 9541 0
-6054 783 0
-9541 -783 6054 0
-6055 9541 0
-6055 784 0
-9541 -784 6055 0
-6056 9541 0
-6056 785 0
-9541 -785 6056 0
-6057 9541 0
-6057 786 0
-9541 -786 6057 0
-6058 9541 0
-6058 787 0
-9541 -787 6058 0
-6059 9541 0
-6059 788 0
-9541 -788 6059 0
-6060 9541 0
-6060 789 0
-9541 -789 6060 0
-6061 9541 0
-6061 790 0
-9541 -790 6061 0
-6062 9541 0
-6062 791 0
-9541 -791 6062 0
-6063 9542 0
-6063 679 0
-9542 -679 6063 0
-6064 9542 0
-6064 698 0
-9542 -698 6064 0
-6065 9542 0
-6065 716 0
-9542 -716 6065 0
-6066 9542 0
-6066 733 0
-9542 -733 6066 0
-6067 9542 0
-6067 749 0
-9542 -749 6067 0
-6068 9542 0
-6068 764 0
-9542 -764 6068 0
-6069 9542 0
-6069 778 0
-9542 -778 6069 0
-6070 9542 0
-6070 792 0
-9542 -792 6070 0
-6071 9542 0
-6071 793 0
-9542 -793 6071 0
-6072 9542 0
-6072 794 0
-9542 -794 6072 0
-6073 9542 0
-6073 795 0
-9542 -795 6073 0
-6074 9542 0
-6074 796 0
-9542 -796 6074 0
-6075 9542 0
-6075 797 0
-9542 -797 6075 0
-6076 9542 0
-6076 798 0
-9542 -798 6076 0
-6077 9542 0
-6077 799 0
-9542 -799 6077 0
-6078 9542 0
-6078 800 0
-9542 -800 6078 0
-6079 9542 0
-6079 801 0
-9542 -801 6079 0
-6080 9542 0
-6080 802 0
-9542 -802 6080 0
-6081 9542 0
-6081 803 0
-9542 -803 6081 0
-6082 9542 0
-6082 804 0
-9542 -804 6082 0
-6083 9543 0
-6083 680 0
-9543 -680 6083 0
-6084 9543 0
-6084 699 0
-9543 -699 6084 0
-6085 9543 0
-6085 717 0
-9543 -717 6085 0
-6086 9543 0
-6086 734 0
-9543 -734 6086 0
-6087 9543 0
-6087 750 0
-9543 -750 6087 0
-6088 9543 0
-6088 765 0
-9543 -765 6088 0
-6089 9543 0
-6089 779 0
-9543 -779 6089 0
-6090 9543 0
-6090 792 0
-9543 -792 6090 0
-6091 9543 0
-6091 805 0
-9543 -805 6091 0
-6092 9543 0
-6092 806 0
-9543 -806 6092 0
-6093 9543 0
-6093 807 0
-9543 -807 6093 0
-6094 9543 0
-6094 808 0
-9543 -808 6094 0
-6095 9543 0
-6095 809 0
-9543 -809 6095 0
-6096 9543 0
-6096 810 0
-9543 -810 6096 0
-6097 9543 0
-6097 811 0
-9543 -811 6097 0
-6098 9543 0
-6098 812 0
-9543 -812 6098 0
-6099 9543 0
-6099 813 0
-9543 -813 6099 0
-6100 9543 0
-6100 814 0
-9543 -814 6100 0
-6101 9543 0
-6101 815 0
-9543 -815 6101 0
-6102 9543 0
-6102 816 0
-9543 -816 6102 0
-6103 9544 0
-6103 681 0
-9544 -681 6103 0
-6104 9544 0
-6104 700 0
-9544 -700 6104 0
-6105 9544 0
-6105 718 0
-9544 -718 6105 0
-6106 9544 0
-6106 735 0
-9544 -735 6106 0
-6107 9544 0
-6107 751 0
-9544 -751 6107 0
-6108 9544 0
-6108 766 0
-9544 -766 6108 0
-6109 9544 0
-6109 780 0
-9544 -780 6109 0
-6110 9544 0
-6110 793 0
-9544 -793 6110 0
-6111 9544 0
-6111 805 0
-9544 -805 6111 0
-6112 9544 0
-6112 817 0
-9544 -817 6112 0
-6113 9544 0
-6113 818 0
-9544 -818 6113 0
-6114 9544 0
-6114 819 0
-9544 -819 6114 0
-6115 9544 0
-6115 820 0
-9544 -820 6115 0
-6116 9544 0
-6116 821 0
-9544 -821 6116 0
-6117 9544 0
-6117 822 0
-9544 -822 6117 0
-6118 9544 0
-6118 823 0
-9544 -823 6118 0
-6119 9544 0
-6119 824 0
-9544 -824 6119 0
-6120 9544 0
-6120 825 0
-9544 -825 6120 0
-6121 9544 0
-6121 826 0
-9544 -826 6121 0
-6122 9544 0
-6122 827 0
-9544 -827 6122 0
-6123 9545 0
-6123 682 0
-9545 -682 6123 0
-6124 9545 0
-6124 701 0
-9545 -701 6124 0
-6125 9545 0
-6125 719 0
-9545 -719 6125 0
-6126 9545 0
-6126 736 0
-9545 -736 6126 0
-6127 9545 0
-6127 752 0
-9545 -752 6127 0
-6128 9545 0
-6128 767 0
-9545 -767 6128 0
-6129 9545 0
-6129 781 0
-9545 -781 6129 0
-6130 9545 0
-6130 794 0
-9545 -794 6130 0
-6131 9545 0
-6131 806 0
-9545 -806 6131 0
-6132 9545 0
-6132 817 0
-9545 -817 6132 0
-6133 9545 0
-6133 828 0
-9545 -828 6133 0
-6134 9545 0
-6134 829 0
-9545 -829 6134 0
-6135 9545 0
-6135 830 0
-9545 -830 6135 0
-6136 9545 0
-6136 831 0
-9545 -831 6136 0
-6137 9545 0
-6137 832 0
-9545 -832 6137 0
-6138 9545 0
-6138 833 0
-9545 -833 6138 0
-6139 9545 0
-6139 834 0
-9545 -834 6139 0
-6140 9545 0
-6140 835 0
-9545 -835 6140 0
-6141 9545 0
-6141 836 0
-9545 -836 6141 0
-6142 9545 0
-6142 837 0
-9545 -837 6142 0
-6143 9546 0
-6143 683 0
-9546 -683 6143 0
-6144 9546 0
-6144 702 0
-9546 -702 6144 0
-6145 9546 0
-6145 720 0
-9546 -720 6145 0
-6146 9546 0
-6146 737 0
-9546 -737 6146 0
-6147 9546 0
-6147 753 0
-9546 -753 6147 0
-6148 9546 0
-6148 768 0
-9546 -768 6148 0
-6149 9546 0
-6149 782 0
-9546 -782 6149 0
-6150 9546 0
-6150 795 0
-9546 -795 6150 0
-6151 9546 0
-6151 807 0
-9546 -807 6151 0
-6152 9546 0
-6152 818 0
-9546 -818 6152 0
-6153 9546 0
-6153 828 0
-9546 -828 6153 0
-6154 9546 0
-6154 838 0
-9546 -838 6154 0
-6155 9546 0
-6155 839 0
-9546 -839 6155 0
-6156 9546 0
-6156 840 0
-9546 -840 6156 0
-6157 9546 0
-6157 841 0
-9546 -841 6157 0
-6158 9546 0
-6158 842 0
-9546 -842 6158 0
-6159 9546 0
-6159 843 0
-9546 -843 6159 0
-6160 9546 0
-6160 844 0
-9546 -844 6160 0
-6161 9546 0
-6161 845 0
-9546 -845 6161 0
-6162 9546 0
-6162 846 0
-9546 -846 6162 0
-6163 9547 0
-6163 684 0
-9547 -684 6163 0
-6164 9547 0
-6164 703 0
-9547 -703 6164 0
-6165 9547 0
-6165 721 0
-9547 -721 6165 0
-6166 9547 0
-6166 738 0
-9547 -738 6166 0
-6167 9547 0
-6167 754 0
-9547 -754 6167 0
-6168 9547 0
-6168 769 0
-9547 -769 6168 0
-6169 9547 0
-6169 783 0
-9547 -783 6169 0
-6170 9547 0
-6170 796 0
-9547 -796 6170 0
-6171 9547 0
-6171 808 0
-9547 -808 6171 0
-6172 9547 0
-6172 819 0
-9547 -819 6172 0
-6173 9547 0
-6173 829 0
-9547 -829 6173 0
-6174 9547 0
-6174 838 0
-9547 -838 6174 0
-6175 9547 0
-6175 847 0
-9547 -847 6175 0
-6176 9547 0
-6176 848 0
-9547 -848 6176 0
-6177 9547 0
-6177 849 0
-9547 -849 6177 0
-6178 9547 0
-6178 850 0
-9547 -850 6178 0
-6179 9547 0
-6179 851 0
-9547 -851 6179 0
-6180 9547 0
-6180 852 0
-9547 -852 6180 0
-6181 9547 0
-6181 853 0
-9547 -853 6181 0
-6182 9547 0
-6182 854 0
-9547 -854 6182 0
-6183 9548 0
-6183 685 0
-9548 -685 6183 0
-6184 9548 0
-6184 704 0
-9548 -704 6184 0
-6185 9548 0
-6185 722 0
-9548 -722 6185 0
-6186 9548 0
-6186 739 0
-9548 -739 6186 0
-6187 9548 0
-6187 755 0
-9548 -755 6187 0
-6188 9548 0
-6188 770 0
-9548 -770 6188 0
-6189 9548 0
-6189 784 0
-9548 -784 6189 0
-6190 9548 0
-6190 797 0
-9548 -797 6190 0
-6191 9548 0
-6191 809 0
-9548 -809 6191 0
-6192 9548 0
-6192 820 0
-9548 -820 6192 0
-6193 9548 0
-6193 830 0
-9548 -830 6193 0
-6194 9548 0
-6194 839 0
-9548 -839 6194 0
-6195 9548 0
-6195 847 0
-9548 -847 6195 0
-6196 9548 0
-6196 855 0
-9548 -855 6196 0
-6197 9548 0
-6197 856 0
-9548 -856 6197 0
-6198 9548 0
-6198 857 0
-9548 -857 6198 0
-6199 9548 0
-6199 858 0
-9548 -858 6199 0
-6200 9548 0
-6200 859 0
-9548 -859 6200 0
-6201 9548 0
-6201 860 0
-9548 -860 6201 0
-6202 9548 0
-6202 861 0
-9548 -861 6202 0
-6203 9549 0
-6203 686 0
-9549 -686 6203 0
-6204 9549 0
-6204 705 0
-9549 -705 6204 0
-6205 9549 0
-6205 723 0
-9549 -723 6205 0
-6206 9549 0
-6206 740 0
-9549 -740 6206 0
-6207 9549 0
-6207 756 0
-9549 -756 6207 0
-6208 9549 0
-6208 771 0
-9549 -771 6208 0
-6209 9549 0
-6209 785 0
-9549 -785 6209 0
-6210 9549 0
-6210 798 0
-9549 -798 6210 0
-6211 9549 0
-6211 810 0
-9549 -810 6211 0
-6212 9549 0
-6212 821 0
-9549 -821 6212 0
-6213 9549 0
-6213 831 0
-9549 -831 6213 0
-6214 9549 0
-6214 840 0
-9549 -840 6214 0
-6215 9549 0
-6215 848 0
-9549 -848 6215 0
-6216 9549 0
-6216 855 0
-9549 -855 6216 0
-6217 9549 0
-6217 862 0
-9549 -862 6217 0
-6218 9549 0
-6218 863 0
-9549 -863 6218 0
-6219 9549 0
-6219 864 0
-9549 -864 6219 0
-6220 9549 0
-6220 865 0
-9549 -865 6220 0
-6221 9549 0
-6221 866 0
-9549 -866 6221 0
-6222 9549 0
-6222 867 0
-9549 -867 6222 0
-6223 9550 0
-6223 687 0
-9550 -687 6223 0
-6224 9550 0
-6224 706 0
-9550 -706 6224 0
-6225 9550 0
-6225 724 0
-9550 -724 6225 0
-6226 9550 0
-6226 741 0
-9550 -741 6226 0
-6227 9550 0
-6227 757 0
-9550 -757 6227 0
-6228 9550 0
-6228 772 0
-9550 -772 6228 0
-6229 9550 0
-6229 786 0
-9550 -786 6229 0
-6230 9550 0
-6230 799 0
-9550 -799 6230 0
-6231 9550 0
-6231 811 0
-9550 -811 6231 0
-6232 9550 0
-6232 822 0
-9550 -822 6232 0
-6233 9550 0
-6233 832 0
-9550 -832 6233 0
-6234 9550 0
-6234 841 0
-9550 -841 6234 0
-6235 9550 0
-6235 849 0
-9550 -849 6235 0
-6236 9550 0
-6236 856 0
-9550 -856 6236 0
-6237 9550 0
-6237 862 0
-9550 -862 6237 0
-6238 9550 0
-6238 868 0
-9550 -868 6238 0
-6239 9550 0
-6239 869 0
-9550 -869 6239 0
-6240 9550 0
-6240 870 0
-9550 -870 6240 0
-6241 9550 0
-6241 871 0
-9550 -871 6241 0
-6242 9550 0
-6242 872 0
-9550 -872 6242 0
-6243 9551 0
-6243 688 0
-9551 -688 6243 0
-6244 9551 0
-6244 707 0
-9551 -707 6244 0
-6245 9551 0
-6245 725 0
-9551 -725 6245 0
-6246 9551 0
-6246 742 0
-9551 -742 6246 0
-6247 9551 0
-6247 758 0
-9551 -758 6247 0
-6248 9551 0
-6248 773 0
-9551 -773 6248 0
-6249 9551 0
-6249 787 0
-9551 -787 6249 0
-6250 9551 0
-6250 800 0
-9551 -800 6250 0
-6251 9551 0
-6251 812 0
-9551 -812 6251 0
-6252 9551 0
-6252 823 0
-9551 -823 6252 0
-6253 9551 0
-6253 833 0
-9551 -833 6253 0
-6254 9551 0
-6254 842 0
-9551 -842 6254 0
-6255 9551 0
-6255 850 0
-9551 -850 6255 0
-6256 9551 0
-6256 857 0
-9551 -857 6256 0
-6257 9551 0
-6257 863 0
-9551 -863 6257 0
-6258 9551 0
-6258 868 0
-9551 -868 6258 0
-6259 9551 0
-6259 873 0
-9551 -873 6259 0
-6260 9551 0
-6260 874 0
-9551 -874 6260 0
-6261 9551 0
-6261 875 0
-9551 -875 6261 0
-6262 9551 0
-6262 876 0
-9551 -876 6262 0
-6263 9552 0
-6263 689 0
-9552 -689 6263 0
-6264 9552 0
-6264 708 0
-9552 -708 6264 0
-6265 9552 0
-6265 726 0
-9552 -726 6265 0
-6266 9552 0
-6266 743 0
-9552 -743 6266 0
-6267 9552 0
-6267 759 0
-9552 -759 6267 0
-6268 9552 0
-6268 774 0
-9552 -774 6268 0
-6269 9552 0
-6269 788 0
-9552 -788 6269 0
-6270 9552 0
-6270 801 0
-9552 -801 6270 0
-6271 9552 0
-6271 813 0
-9552 -813 6271 0
-6272 9552 0
-6272 824 0
-9552 -824 6272 0
-6273 9552 0
-6273 834 0
-9552 -834 6273 0
-6274 9552 0
-6274 843 0
-9552 -843 6274 0
-6275 9552 0
-6275 851 0
-9552 -851 6275 0
-6276 9552 0
-6276 858 0
-9552 -858 6276 0
-6277 9552 0
-6277 864 0
-9552 -864 6277 0
-6278 9552 0
-6278 869 0
-9552 -869 6278 0
-6279 9552 0
-6279 873 0
-9552 -873 6279 0
-6280 9552 0
-6280 877 0
-9552 -877 6280 0
-6281 9552 0
-6281 878 0
-9552 -878 6281 0
-6282 9552 0
-6282 879 0
-9552 -879 6282 0
-6283 9553 0
-6283 690 0
-9553 -690 6283 0
-6284 9553 0
-6284 709 0
-9553 -709 6284 0
-6285 9553 0
-6285 727 0
-9553 -727 6285 0
-6286 9553 0
-6286 744 0
-9553 -744 6286 0
-6287 9553 0
-6287 760 0
-9553 -760 6287 0
-6288 9553 0
-6288 775 0
-9553 -775 6288 0
-6289 9553 0
-6289 789 0
-9553 -789 6289 0
-6290 9553 0
-6290 802 0
-9553 -802 6290 0
-6291 9553 0
-6291 814 0
-9553 -814 6291 0
-6292 9553 0
-6292 825 0
-9553 -825 6292 0
-6293 9553 0
-6293 835 0
-9553 -835 6293 0
-6294 9553 0
-6294 844 0
-9553 -844 6294 0
-6295 9553 0
-6295 852 0
-9553 -852 6295 0
-6296 9553 0
-6296 859 0
-9553 -859 6296 0
-6297 9553 0
-6297 865 0
-9553 -865 6297 0
-6298 9553 0
-6298 870 0
-9553 -870 6298 0
-6299 9553 0
-6299 874 0
-9553 -874 6299 0
-6300 9553 0
-6300 877 0
-9553 -877 6300 0
-6301 9553 0
-6301 880 0
-9553 -880 6301 0
-6302 9553 0
-6302 881 0
-9553 -881 6302 0
-6303 9554 0
-6303 691 0
-9554 -691 6303 0
-6304 9554 0
-6304 710 0
-9554 -710 6304 0
-6305 9554 0
-6305 728 0
-9554 -728 6305 0
-6306 9554 0
-6306 745 0
-9554 -745 6306 0
-6307 9554 0
-6307 761 0
-9554 -761 6307 0
-6308 9554 0
-6308 776 0
-9554 -776 6308 0
-6309 9554 0
-6309 790 0
-9554 -790 6309 0
-6310 9554 0
-6310 803 0
-9554 -803 6310 0
-6311 9554 0
-6311 815 0
-9554 -815 6311 0
-6312 9554 0
-6312 826 0
-9554 -826 6312 0
-6313 9554 0
-6313 836 0
-9554 -836 6313 0
-6314 9554 0
-6314 845 0
-9554 -845 6314 0
-6315 9554 0
-6315 853 0
-9554 -853 6315 0
-6316 9554 0
-6316 860 0
-9554 -860 6316 0
-6317 9554 0
-6317 866 0
-9554 -866 6317 0
-6318 9554 0
-6318 871 0
-9554 -871 6318 0
-6319 9554 0
-6319 875 0
-9554 -875 6319 0
-6320 9554 0
-6320 878 0
-9554 -878 6320 0
-6321 9554 0
-6321 880 0
-9554 -880 6321 0
-6322 9554 0
-6322 882 0
-9554 -882 6322 0
-6323 9555 0
-6323 692 0
-9555 -692 6323 0
-6324 9555 0
-6324 711 0
-9555 -711 6324 0
-6325 9555 0
-6325 729 0
-9555 -729 6325 0
-6326 9555 0
-6326 746 0
-9555 -746 6326 0
-6327 9555 0
-6327 762 0
-9555 -762 6327 0
-6328 9555 0
-6328 777 0
-9555 -777 6328 0
-6329 9555 0
-6329 791 0
-9555 -791 6329 0
-6330 9555 0
-6330 804 0
-9555 -804 6330 0
-6331 9555 0
-6331 816 0
-9555 -816 6331 0
-6332 9555 0
-6332 827 0
-9555 -827 6332 0
-6333 9555 0
-6333 837 0
-9555 -837 6333 0
-6334 9555 0
-6334 846 0
-9555 -846 6334 0
-6335 9555 0
-6335 854 0
-9555 -854 6335 0
-6336 9555 0
-6336 861 0
-9555 -861 6336 0
-6337 9555 0
-6337 867 0
-9555 -867 6337 0
-6338 9555 0
-6338 872 0
-9555 -872 6338 0
-6339 9555 0
-6339 876 0
-9555 -876 6339 0
-6340 9555 0
-6340 879 0
-9555 -879 6340 0
-6341 9555 0
-6341 881 0
-9555 -881 6341 0
-6342 9555 0
-6342 882 0
-9555 -882 6342 0
-6343 9556 0
-6343 673 0
-9556 -673 6343 0
-6344 9556 0
-6344 674 0
-9556 -674 6344 0
-6345 9556 0
-6345 675 0
-9556 -675 6345 0
-6346 9556 0
-6346 676 0
-9556 -676 6346 0
-6347 9556 0
-6347 677 0
-9556 -677 6347 0
-6348 9556 0
-6348 678 0
-9556 -678 6348 0
-6349 9556 0
-6349 679 0
-9556 -679 6349 0
-6350 9556 0
-6350 680 0
-9556 -680 6350 0
-6351 9556 0
-6351 681 0
-9556 -681 6351 0
-6352 9556 0
-6352 682 0
-9556 -682 6352 0
-6353 9556 0
-6353 683 0
-9556 -683 6353 0
-6354 9556 0
-6354 684 0
-9556 -684 6354 0
-6355 9556 0
-6355 685 0
-9556 -685 6355 0
-6356 9556 0
-6356 686 0
-9556 -686 6356 0
-6357 9556 0
-6357 687 0
-9556 -687 6357 0
-6358 9556 0
-6358 688 0
-9556 -688 6358 0
-6359 9556 0
-6359 689 0
-9556 -689 6359 0
-6360 9556 0
-6360 690 0
-9556 -690 6360 0
-6361 9556 0
-6361 691 0
-9556 -691 6361 0
-6362 9556 0
-6362 692 0
-9556 -692 6362 0
-6363 9557 0
-6363 673 0
-9557 -673 6363 0
-6364 9557 0
-6364 693 0
-9557 -693 6364 0
-6365 9557 0
-6365 694 0
-9557 -694 6365 0
-6366 9557 0
-6366 695 0
-9557 -695 6366 0
-6367 9557 0
-6367 696 0
-9557 -696 6367 0
-6368 9557 0
-6368 697 0
-9557 -697 6368 0
-6369 9557 0
-6369 698 0
-9557 -698 6369 0
-6370 9557 0
-6370 699 0
-9557 -699 6370 0
-6371 9557 0
-6371 700 0
-9557 -700 6371 0
-6372 9557 0
-6372 701 0
-9557 -701 6372 0
-6373 9557 0
-6373 702 0
-9557 -702 6373 0
-6374 9557 0
-6374 703 0
-9557 -703 6374 0
-6375 9557 0
-6375 704 0
-9557 -704 6375 0
-6376 9557 0
-6376 705 0
-9557 -705 6376 0
-6377 9557 0
-6377 706 0
-9557 -706 6377 0
-6378 9557 0
-6378 707 0
-9557 -707 6378 0
-6379 9557 0
-6379 708 0
-9557 -708 6379 0
-6380 9557 0
-6380 709 0
-9557 -709 6380 0
-6381 9557 0
-6381 710 0
-9557 -710 6381 0
-6382 9557 0
-6382 711 0
-9557 -711 6382 0
-6383 9558 0
-6383 674 0
-9558 -674 6383 0
-6384 9558 0
-6384 693 0
-9558 -693 6384 0
-6385 9558 0
-6385 712 0
-9558 -712 6385 0
-6386 9558 0
-6386 713 0
-9558 -713 6386 0
-6387 9558 0
-6387 714 0
-9558 -714 6387 0
-6388 9558 0
-6388 715 0
-9558 -715 6388 0
-6389 9558 0
-6389 716 0
-9558 -716 6389 0
-6390 9558 0
-6390 717 0
-9558 -717 6390 0
-6391 9558 0
-6391 718 0
-9558 -718 6391 0
-6392 9558 0
-6392 719 0
-9558 -719 6392 0
-6393 9558 0
-6393 720 0
-9558 -720 6393 0
-6394 9558 0
-6394 721 0
-9558 -721 6394 0
-6395 9558 0
-6395 722 0
-9558 -722 6395 0
-6396 9558 0
-6396 723 0
-9558 -723 6396 0
-6397 9558 0
-6397 724 0
-9558 -724 6397 0
-6398 9558 0
-6398 725 0
-9558 -725 6398 0
-6399 9558 0
-6399 726 0
-9558 -726 6399 0
-6400 9558 0
-6400 727 0
-9558 -727 6400 0
-6401 9558 0
-6401 728 0
-9558 -728 6401 0
-6402 9558 0
-6402 729 0
-9558 -729 6402 0
-6403 9559 0
-6403 675 0
-9559 -675 6403 0
-6404 9559 0
-6404 694 0
-9559 -694 6404 0
-6405 9559 0
-6405 712 0
-9559 -712 6405 0
-6406 9559 0
-6406 730 0
-9559 -730 6406 0
-6407 9559 0
-6407 731 0
-9559 -731 6407 0
-6408 9559 0
-6408 732 0
-9559 -732 6408 0
-6409 9559 0
-6409 733 0
-9559 -733 6409 0
-6410 9559 0
-6410 734 0
-9559 -734 6410 0
-6411 9559 0
-6411 735 0
-9559 -735 6411 0
-6412 9559 0
-6412 736 0
-9559 -736 6412 0
-6413 9559 0
-6413 737 0
-9559 -737 6413 0
-6414 9559 0
-6414 738 0
-9559 -738 6414 0
-6415 9559 0
-6415 739 0
-9559 -739 6415 0
-6416 9559 0
-6416 740 0
-9559 -740 6416 0
-6417 9559 0
-6417 741 0
-9559 -741 6417 0
-6418 9559 0
-6418 742 0
-9559 -742 6418 0
-6419 9559 0
-6419 743 0
-9559 -743 6419 0
-6420 9559 0
-6420 744 0
-9559 -744 6420 0
-6421 9559 0
-6421 745 0
-9559 -745 6421 0
-6422 9559 0
-6422 746 0
-9559 -746 6422 0
-6423 9560 0
-6423 676 0
-9560 -676 6423 0
-6424 9560 0
-6424 695 0
-9560 -695 6424 0
-6425 9560 0
-6425 713 0
-9560 -713 6425 0
-6426 9560 0
-6426 730 0
-9560 -730 6426 0
-6427 9560 0
-6427 747 0
-9560 -747 6427 0
-6428 9560 0
-6428 748 0
-9560 -748 6428 0
-6429 9560 0
-6429 749 0
-9560 -749 6429 0
-6430 9560 0
-6430 750 0
-9560 -750 6430 0
-6431 9560 0
-6431 751 0
-9560 -751 6431 0
-6432 9560 0
-6432 752 0
-9560 -752 6432 0
-6433 9560 0
-6433 753 0
-9560 -753 6433 0
-6434 9560 0
-6434 754 0
-9560 -754 6434 0
-6435 9560 0
-6435 755 0
-9560 -755 6435 0
-6436 9560 0
-6436 756 0
-9560 -756 6436 0
-6437 9560 0
-6437 757 0
-9560 -757 6437 0
-6438 9560 0
-6438 758 0
-9560 -758 6438 0
-6439 9560 0
-6439 759 0
-9560 -759 6439 0
-6440 9560 0
-6440 760 0
-9560 -760 6440 0
-6441 9560 0
-6441 761 0
-9560 -761 6441 0
-6442 9560 0
-6442 762 0
-9560 -762 6442 0
-6443 9561 0
-6443 677 0
-9561 -677 6443 0
-6444 9561 0
-6444 696 0
-9561 -696 6444 0
-6445 9561 0
-6445 714 0
-9561 -714 6445 0
-6446 9561 0
-6446 731 0
-9561 -731 6446 0
-6447 9561 0
-6447 747 0
-9561 -747 6447 0
-6448 9561 0
-6448 763 0
-9561 -763 6448 0
-6449 9561 0
-6449 764 0
-9561 -764 6449 0
-6450 9561 0
-6450 765 0
-9561 -765 6450 0
-6451 9561 0
-6451 766 0
-9561 -766 6451 0
-6452 9561 0
-6452 767 0
-9561 -767 6452 0
-6453 9561 0
-6453 768 0
-9561 -768 6453 0
-6454 9561 0
-6454 769 0
-9561 -769 6454 0
-6455 9561 0
-6455 770 0
-9561 -770 6455 0
-6456 9561 0
-6456 771 0
-9561 -771 6456 0
-6457 9561 0
-6457 772 0
-9561 -772 6457 0
-6458 9561 0
-6458 773 0
-9561 -773 6458 0
-6459 9561 0
-6459 774 0
-9561 -774 6459 0
-6460 9561 0
-6460 775 0
-9561 -775 6460 0
-6461 9561 0
-6461 776 0
-9561 -776 6461 0
-6462 9561 0
-6462 777 0
-9561 -777 6462 0
-6463 9562 0
-6463 678 0
-9562 -678 6463 0
-6464 9562 0
-6464 697 0
-9562 -697 6464 0
-6465 9562 0
-6465 715 0
-9562 -715 6465 0
-6466 9562 0
-6466 732 0
-9562 -732 6466 0
-6467 9562 0
-6467 748 0
-9562 -748 6467 0
-6468 9562 0
-6468 763 0
-9562 -763 6468 0
-6469 9562 0
-6469 778 0
-9562 -778 6469 0
-6470 9562 0
-6470 779 0
-9562 -779 6470 0
-6471 9562 0
-6471 780 0
-9562 -780 6471 0
-6472 9562 0
-6472 781 0
-9562 -781 6472 0
-6473 9562 0
-6473 782 0
-9562 -782 6473 0
-6474 9562 0
-6474 783 0
-9562 -783 6474 0
-6475 9562 0
-6475 784 0
-9562 -784 6475 0
-6476 9562 0
-6476 785 0
-9562 -785 6476 0
-6477 9562 0
-6477 786 0
-9562 -786 6477 0
-6478 9562 0
-6478 787 0
-9562 -787 6478 0
-6479 9562 0
-6479 788 0
-9562 -788 6479 0
-6480 9562 0
-6480 789 0
-9562 -789 6480 0
-6481 9562 0
-6481 790 0
-9562 -790 6481 0
-6482 9562 0
-6482 791 0
-9562 -791 6482 0
-6483 9563 0
-6483 679 0
-9563 -679 6483 0
-6484 9563 0
-6484 698 0
-9563 -698 6484 0
-6485 9563 0
-6485 716 0
-9563 -716 6485 0
-6486 9563 0
-6486 733 0
-9563 -733 6486 0
-6487 9563 0
-6487 749 0
-9563 -749 6487 0
-6488 9563 0
-6488 764 0
-9563 -764 6488 0
-6489 9563 0
-6489 778 0
-9563 -778 6489 0
-6490 9563 0
-6490 792 0
-9563 -792 6490 0
-6491 9563 0
-6491 793 0
-9563 -793 6491 0
-6492 9563 0
-6492 794 0
-9563 -794 6492 0
-6493 9563 0
-6493 795 0
-9563 -795 6493 0
-6494 9563 0
-6494 796 0
-9563 -796 6494 0
-6495 9563 0
-6495 797 0
-9563 -797 6495 0
-6496 9563 0
-6496 798 0
-9563 -798 6496 0
-6497 9563 0
-6497 799 0
-9563 -799 6497 0
-6498 9563 0
-6498 800 0
-9563 -800 6498 0
-6499 9563 0
-6499 801 0
-9563 -801 6499 0
-6500 9563 0
-6500 802 0
-9563 -802 6500 0
-6501 9563 0
-6501 803 0
-9563 -803 6501 0
-6502 9563 0
-6502 804 0
-9563 -804 6502 0
-6503 9564 0
-6503 680 0
-9564 -680 6503 0
-6504 9564 0
-6504 699 0
-9564 -699 6504 0
-6505 9564 0
-6505 717 0
-9564 -717 6505 0
-6506 9564 0
-6506 734 0
-9564 -734 6506 0
-6507 9564 0
-6507 750 0
-9564 -750 6507 0
-6508 9564 0
-6508 765 0
-9564 -765 6508 0
-6509 9564 0
-6509 779 0
-9564 -779 6509 0
-6510 9564 0
-6510 792 0
-9564 -792 6510 0
-6511 9564 0
-6511 805 0
-9564 -805 6511 0
-6512 9564 0
-6512 806 0
-9564 -806 6512 0
-6513 9564 0
-6513 807 0
-9564 -807 6513 0
-6514 9564 0
-6514 808 0
-9564 -808 6514 0
-6515 9564 0
-6515 809 0
-9564 -809 6515 0
-6516 9564 0
-6516 810 0
-9564 -810 6516 0
-6517 9564 0
-6517 811 0
-9564 -811 6517 0
-6518 9564 0
-6518 812 0
-9564 -812 6518 0
-6519 9564 0
-6519 813 0
-9564 -813 6519 0
-6520 9564 0
-6520 814 0
-9564 -814 6520 0
-6521 9564 0
-6521 815 0
-9564 -815 6521 0
-6522 9564 0
-6522 816 0
-9564 -816 6522 0
-6523 9565 0
-6523 681 0
-9565 -681 6523 0
-6524 9565 0
-6524 700 0
-9565 -700 6524 0
-6525 9565 0
-6525 718 0
-9565 -718 6525 0
-6526 9565 0
-6526 735 0
-9565 -735 6526 0
-6527 9565 0
-6527 751 0
-9565 -751 6527 0
-6528 9565 0
-6528 766 0
-9565 -766 6528 0
-6529 9565 0
-6529 780 0
-9565 -780 6529 0
-6530 9565 0
-6530 793 0
-9565 -793 6530 0
-6531 9565 0
-6531 805 0
-9565 -805 6531 0
-6532 9565 0
-6532 817 0
-9565 -817 6532 0
-6533 9565 0
-6533 818 0
-9565 -818 6533 0
-6534 9565 0
-6534 819 0
-9565 -819 6534 0
-6535 9565 0
-6535 820 0
-9565 -820 6535 0
-6536 9565 0
-6536 821 0
-9565 -821 6536 0
-6537 9565 0
-6537 822 0
-9565 -822 6537 0
-6538 9565 0
-6538 823 0
-9565 -823 6538 0
-6539 9565 0
-6539 824 0
-9565 -824 6539 0
-6540 9565 0
-6540 825 0
-9565 -825 6540 0
-6541 9565 0
-6541 826 0
-9565 -826 6541 0
-6542 9565 0
-6542 827 0
-9565 -827 6542 0
-6543 9566 0
-6543 682 0
-9566 -682 6543 0
-6544 9566 0
-6544 701 0
-9566 -701 6544 0
-6545 9566 0
-6545 719 0
-9566 -719 6545 0
-6546 9566 0
-6546 736 0
-9566 -736 6546 0
-6547 9566 0
-6547 752 0
-9566 -752 6547 0
-6548 9566 0
-6548 767 0
-9566 -767 6548 0
-6549 9566 0
-6549 781 0
-9566 -781 6549 0
-6550 9566 0
-6550 794 0
-9566 -794 6550 0
-6551 9566 0
-6551 806 0
-9566 -806 6551 0
-6552 9566 0
-6552 817 0
-9566 -817 6552 0
-6553 9566 0
-6553 828 0
-9566 -828 6553 0
-6554 9566 0
-6554 829 0
-9566 -829 6554 0
-6555 9566 0
-6555 830 0
-9566 -830 6555 0
-6556 9566 0
-6556 831 0
-9566 -831 6556 0
-6557 9566 0
-6557 832 0
-9566 -832 6557 0
-6558 9566 0
-6558 833 0
-9566 -833 6558 0
-6559 9566 0
-6559 834 0
-9566 -834 6559 0
-6560 9566 0
-6560 835 0
-9566 -835 6560 0
-6561 9566 0
-6561 836 0
-9566 -836 6561 0
-6562 9566 0
-6562 837 0
-9566 -837 6562 0
-6563 9567 0
-6563 683 0
-9567 -683 6563 0
-6564 9567 0
-6564 702 0
-9567 -702 6564 0
-6565 9567 0
-6565 720 0
-9567 -720 6565 0
-6566 9567 0
-6566 737 0
-9567 -737 6566 0
-6567 9567 0
-6567 753 0
-9567 -753 6567 0
-6568 9567 0
-6568 768 0
-9567 -768 6568 0
-6569 9567 0
-6569 782 0
-9567 -782 6569 0
-6570 9567 0
-6570 795 0
-9567 -795 6570 0
-6571 9567 0
-6571 807 0
-9567 -807 6571 0
-6572 9567 0
-6572 818 0
-9567 -818 6572 0
-6573 9567 0
-6573 828 0
-9567 -828 6573 0
-6574 9567 0
-6574 838 0
-9567 -838 6574 0
-6575 9567 0
-6575 839 0
-9567 -839 6575 0
-6576 9567 0
-6576 840 0
-9567 -840 6576 0
-6577 9567 0
-6577 841 0
-9567 -841 6577 0
-6578 9567 0
-6578 842 0
-9567 -842 6578 0
-6579 9567 0
-6579 843 0
-9567 -843 6579 0
-6580 9567 0
-6580 844 0
-9567 -844 6580 0
-6581 9567 0
-6581 845 0
-9567 -845 6581 0
-6582 9567 0
-6582 846 0
-9567 -846 6582 0
-6583 9568 0
-6583 684 0
-9568 -684 6583 0
-6584 9568 0
-6584 703 0
-9568 -703 6584 0
-6585 9568 0
-6585 721 0
-9568 -721 6585 0
-6586 9568 0
-6586 738 0
-9568 -738 6586 0
-6587 9568 0
-6587 754 0
-9568 -754 6587 0
-6588 9568 0
-6588 769 0
-9568 -769 6588 0
-6589 9568 0
-6589 783 0
-9568 -783 6589 0
-6590 9568 0
-6590 796 0
-9568 -796 6590 0
-6591 9568 0
-6591 808 0
-9568 -808 6591 0
-6592 9568 0
-6592 819 0
-9568 -819 6592 0
-6593 9568 0
-6593 829 0
-9568 -829 6593 0
-6594 9568 0
-6594 838 0
-9568 -838 6594 0
-6595 9568 0
-6595 847 0
-9568 -847 6595 0
-6596 9568 0
-6596 848 0
-9568 -848 6596 0
-6597 9568 0
-6597 849 0
-9568 -849 6597 0
-6598 9568 0
-6598 850 0
-9568 -850 6598 0
-6599 9568 0
-6599 851 0
-9568 -851 6599 0
-6600 9568 0
-6600 852 0
-9568 -852 6600 0
-6601 9568 0
-6601 853 0
-9568 -853 6601 0
-6602 9568 0
-6602 854 0
-9568 -854 6602 0
-6603 9569 0
-6603 685 0
-9569 -685 6603 0
-6604 9569 0
-6604 704 0
-9569 -704 6604 0
-6605 9569 0
-6605 722 0
-9569 -722 6605 0
-6606 9569 0
-6606 739 0
-9569 -739 6606 0
-6607 9569 0
-6607 755 0
-9569 -755 6607 0
-6608 9569 0
-6608 770 0
-9569 -770 6608 0
-6609 9569 0
-6609 784 0
-9569 -784 6609 0
-6610 9569 0
-6610 797 0
-9569 -797 6610 0
-6611 9569 0
-6611 809 0
-9569 -809 6611 0
-6612 9569 0
-6612 820 0
-9569 -820 6612 0
-6613 9569 0
-6613 830 0
-9569 -830 6613 0
-6614 9569 0
-6614 839 0
-9569 -839 6614 0
-6615 9569 0
-6615 847 0
-9569 -847 6615 0
-6616 9569 0
-6616 855 0
-9569 -855 6616 0
-6617 9569 0
-6617 856 0
-9569 -856 6617 0
-6618 9569 0
-6618 857 0
-9569 -857 6618 0
-6619 9569 0
-6619 858 0
-9569 -858 6619 0
-6620 9569 0
-6620 859 0
-9569 -859 6620 0
-6621 9569 0
-6621 860 0
-9569 -860 6621 0
-6622 9569 0
-6622 861 0
-9569 -861 6622 0
-6623 9570 0
-6623 686 0
-9570 -686 6623 0
-6624 9570 0
-6624 705 0
-9570 -705 6624 0
-6625 9570 0
-6625 723 0
-9570 -723 6625 0
-6626 9570 0
-6626 740 0
-9570 -740 6626 0
-6627 9570 0
-6627 756 0
-9570 -756 6627 0
-6628 9570 0
-6628 771 0
-9570 -771 6628 0
-6629 9570 0
-6629 785 0
-9570 -785 6629 0
-6630 9570 0
-6630 798 0
-9570 -798 6630 0
-6631 9570 0
-6631 810 0
-9570 -810 6631 0
-6632 9570 0
-6632 821 0
-9570 -821 6632 0
-6633 9570 0
-6633 831 0
-9570 -831 6633 0
-6634 9570 0
-6634 840 0
-9570 -840 6634 0
-6635 9570 0
-6635 848 0
-9570 -848 6635 0
-6636 9570 0
-6636 855 0
-9570 -855 6636 0
-6637 9570 0
-6637 862 0
-9570 -862 6637 0
-6638 9570 0
-6638 863 0
-9570 -863 6638 0
-6639 9570 0
-6639 864 0
-9570 -864 6639 0
-6640 9570 0
-6640 865 0
-9570 -865 6640 0
-6641 9570 0
-6641 866 0
-9570 -866 6641 0
-6642 9570 0
-6642 867 0
-9570 -867 6642 0
-6643 9571 0
-6643 687 0
-9571 -687 6643 0
-6644 9571 0
-6644 706 0
-9571 -706 6644 0
-6645 9571 0
-6645 724 0
-9571 -724 6645 0
-6646 9571 0
-6646 741 0
-9571 -741 6646 0
-6647 9571 0
-6647 757 0
-9571 -757 6647 0
-6648 9571 0
-6648 772 0
-9571 -772 6648 0
-6649 9571 0
-6649 786 0
-9571 -786 6649 0
-6650 9571 0
-6650 799 0
-9571 -799 6650 0
-6651 9571 0
-6651 811 0
-9571 -811 6651 0
-6652 9571 0
-6652 822 0
-9571 -822 6652 0
-6653 9571 0
-6653 832 0
-9571 -832 6653 0
-6654 9571 0
-6654 841 0
-9571 -841 6654 0
-6655 9571 0
-6655 849 0
-9571 -849 6655 0
-6656 9571 0
-6656 856 0
-9571 -856 6656 0
-6657 9571 0
-6657 862 0
-9571 -862 6657 0
-6658 9571 0
-6658 868 0
-9571 -868 6658 0
-6659 9571 0
-6659 869 0
-9571 -869 6659 0
-6660 9571 0
-6660 870 0
-9571 -870 6660 0
-6661 9571 0
-6661 871 0
-9571 -871 6661 0
-6662 9571 0
-6662 872 0
-9571 -872 6662 0
-6663 9572 0
-6663 688 0
-9572 -688 6663 0
-6664 9572 0
-6664 707 0
-9572 -707 6664 0
-6665 9572 0
-6665 725 0
-9572 -725 6665 0
-6666 9572 0
-6666 742 0
-9572 -742 6666 0
-6667 9572 0
-6667 758 0
-9572 -758 6667 0
-6668 9572 0
-6668 773 0
-9572 -773 6668 0
-6669 9572 0
-6669 787 0
-9572 -787 6669 0
-6670 9572 0
-6670 800 0
-9572 -800 6670 0
-6671 9572 0
-6671 812 0
-9572 -812 6671 0
-6672 9572 0
-6672 823 0
-9572 -823 6672 0
-6673 9572 0
-6673 833 0
-9572 -833 6673 0
-6674 9572 0
-6674 842 0
-9572 -842 6674 0
-6675 9572 0
-6675 850 0
-9572 -850 6675 0
-6676 9572 0
-6676 857 0
-9572 -857 6676 0
-6677 9572 0
-6677 863 0
-9572 -863 6677 0
-6678 9572 0
-6678 868 0
-9572 -868 6678 0
-6679 9572 0
-6679 873 0
-9572 -873 6679 0
-6680 9572 0
-6680 874 0
-9572 -874 6680 0
-6681 9572 0
-6681 875 0
-9572 -875 6681 0
-6682 9572 0
-6682 876 0
-9572 -876 6682 0
-6683 9573 0
-6683 689 0
-9573 -689 6683 0
-6684 9573 0
-6684 708 0
-9573 -708 6684 0
-6685 9573 0
-6685 726 0
-9573 -726 6685 0
-6686 9573 0
-6686 743 0
-9573 -743 6686 0
-6687 9573 0
-6687 759 0
-9573 -759 6687 0
-6688 9573 0
-6688 774 0
-9573 -774 6688 0
-6689 9573 0
-6689 788 0
-9573 -788 6689 0
-6690 9573 0
-6690 801 0
-9573 -801 6690 0
-6691 9573 0
-6691 813 0
-9573 -813 6691 0
-6692 9573 0
-6692 824 0
-9573 -824 6692 0
-6693 9573 0
-6693 834 0
-9573 -834 6693 0
-6694 9573 0
-6694 843 0
-9573 -843 6694 0
-6695 9573 0
-6695 851 0
-9573 -851 6695 0
-6696 9573 0
-6696 858 0
-9573 -858 6696 0
-6697 9573 0
-6697 864 0
-9573 -864 6697 0
-6698 9573 0
-6698 869 0
-9573 -869 6698 0
-6699 9573 0
-6699 873 0
-9573 -873 6699 0
-6700 9573 0
-6700 877 0
-9573 -877 6700 0
-6701 9573 0
-6701 878 0
-9573 -878 6701 0
-6702 9573 0
-6702 879 0
-9573 -879 6702 0
-6703 9574 0
-6703 690 0
-9574 -690 6703 0
-6704 9574 0
-6704 709 0
-9574 -709 6704 0
-6705 9574 0
-6705 727 0
-9574 -727 6705 0
-6706 9574 0
-6706 744 0
-9574 -744 6706 0
-6707 9574 0
-6707 760 0
-9574 -760 6707 0
-6708 9574 0
-6708 775 0
-9574 -775 6708 0
-6709 9574 0
-6709 789 0
-9574 -789 6709 0
-6710 9574 0
-6710 802 0
-9574 -802 6710 0
-6711 9574 0
-6711 814 0
-9574 -814 6711 0
-6712 9574 0
-6712 825 0
-9574 -825 6712 0
-6713 9574 0
-6713 835 0
-9574 -835 6713 0
-6714 9574 0
-6714 844 0
-9574 -844 6714 0
-6715 9574 0
-6715 852 0
-9574 -852 6715 0
-6716 9574 0
-6716 859 0
-9574 -859 6716 0
-6717 9574 0
-6717 865 0
-9574 -865 6717 0
-6718 9574 0
-6718 870 0
-9574 -870 6718 0
-6719 9574 0
-6719 874 0
-9574 -874 6719 0
-6720 9574 0
-6720 877 0
-9574 -877 6720 0
-6721 9574 0
-6721 880 0
-9574 -880 6721 0
-6722 9574 0
-6722 881 0
-9574 -881 6722 0
-6723 9575 0
-6723 691 0
-9575 -691 6723 0
-6724 9575 0
-6724 710 0
-9575 -710 6724 0
-6725 9575 0
-6725 728 0
-9575 -728 6725 0
-6726 9575 0
-6726 745 0
-9575 -745 6726 0
-6727 9575 0
-6727 761 0
-9575 -761 6727 0
-6728 9575 0
-6728 776 0
-9575 -776 6728 0
-6729 9575 0
-6729 790 0
-9575 -790 6729 0
-6730 9575 0
-6730 803 0
-9575 -803 6730 0
-6731 9575 0
-6731 815 0
-9575 -815 6731 0
-6732 9575 0
-6732 826 0
-9575 -826 6732 0
-6733 9575 0
-6733 836 0
-9575 -836 6733 0
-6734 9575 0
-6734 845 0
-9575 -845 6734 0
-6735 9575 0
-6735 853 0
-9575 -853 6735 0
-6736 9575 0
-6736 860 0
-9575 -860 6736 0
-6737 9575 0
-6737 866 0
-9575 -866 6737 0
-6738 9575 0
-6738 871 0
-9575 -871 6738 0
-6739 9575 0
-6739 875 0
-9575 -875 6739 0
-6740 9575 0
-6740 878 0
-9575 -878 6740 0
-6741 9575 0
-6741 880 0
-9575 -880 6741 0
-6742 9575 0
-6742 882 0
-9575 -882 6742 0
-6743 9576 0
-6743 692 0
-9576 -692 6743 0
-6744 9576 0
-6744 711 0
-9576 -711 6744 0
-6745 9576 0
-6745 729 0
-9576 -729 6745 0
-6746 9576 0
-6746 746 0
-9576 -746 6746 0
-6747 9576 0
-6747 762 0
-9576 -762 6747 0
-6748 9576 0
-6748 777 0
-9576 -777 6748 0
-6749 9576 0
-6749 791 0
-9576 -791 6749 0
-6750 9576 0
-6750 804 0
-9576 -804 6750 0
-6751 9576 0
-6751 816 0
-9576 -816 6751 0
-6752 9576 0
-6752 827 0
-9576 -827 6752 0
-6753 9576 0
-6753 837 0
-9576 -837 6753 0
-6754 9576 0
-6754 846 0
-9576 -846 6754 0
-6755 9576 0
-6755 854 0
-9576 -854 6755 0
-6756 9576 0
-6756 861 0
-9576 -861 6756 0
-6757 9576 0
-6757 867 0
-9576 -867 6757 0
-6758 9576 0
-6758 872 0
-9576 -872 6758 0
-6759 9576 0
-6759 876 0
-9576 -876 6759 0
-6760 9576 0
-6760 879 0
-9576 -879 6760 0
-6761 9576 0
-6761 881 0
-9576 -881 6761 0
-6762 9576 0
-6762 882 0
-9576 -882 6762 0
-6763 9577 0
-6763 673 0
-9577 -673 6763 0
-6764 9577 0
-6764 674 0
-9577 -674 6764 0
-6765 9577 0
-6765 675 0
-9577 -675 6765 0
-6766 9577 0
-6766 676 0
-9577 -676 6766 0
-6767 9577 0
-6767 677 0
-9577 -677 6767 0
-6768 9577 0
-6768 678 0
-9577 -678 6768 0
-6769 9577 0
-6769 679 0
-9577 -679 6769 0
-6770 9577 0
-6770 680 0
-9577 -680 6770 0
-6771 9577 0
-6771 681 0
-9577 -681 6771 0
-6772 9577 0
-6772 682 0
-9577 -682 6772 0
-6773 9577 0
-6773 683 0
-9577 -683 6773 0
-6774 9577 0
-6774 684 0
-9577 -684 6774 0
-6775 9577 0
-6775 685 0
-9577 -685 6775 0
-6776 9577 0
-6776 686 0
-9577 -686 6776 0
-6777 9577 0
-6777 687 0
-9577 -687 6777 0
-6778 9577 0
-6778 688 0
-9577 -688 6778 0
-6779 9577 0
-6779 689 0
-9577 -689 6779 0
-6780 9577 0
-6780 690 0
-9577 -690 6780 0
-6781 9577 0
-6781 691 0
-9577 -691 6781 0
-6782 9577 0
-6782 692 0
-9577 -692 6782 0
-6783 9578 0
-6783 673 0
-9578 -673 6783 0
-6784 9578 0
-6784 693 0
-9578 -693 6784 0
-6785 9578 0
-6785 694 0
-9578 -694 6785 0
-6786 9578 0
-6786 695 0
-9578 -695 6786 0
-6787 9578 0
-6787 696 0
-9578 -696 6787 0
-6788 9578 0
-6788 697 0
-9578 -697 6788 0
-6789 9578 0
-6789 698 0
-9578 -698 6789 0
-6790 9578 0
-6790 699 0
-9578 -699 6790 0
-6791 9578 0
-6791 700 0
-9578 -700 6791 0
-6792 9578 0
-6792 701 0
-9578 -701 6792 0
-6793 9578 0
-6793 702 0
-9578 -702 6793 0
-6794 9578 0
-6794 703 0
-9578 -703 6794 0
-6795 9578 0
-6795 704 0
-9578 -704 6795 0
-6796 9578 0
-6796 705 0
-9578 -705 6796 0
-6797 9578 0
-6797 706 0
-9578 -706 6797 0
-6798 9578 0
-6798 707 0
-9578 -707 6798 0
-6799 9578 0
-6799 708 0
-9578 -708 6799 0
-6800 9578 0
-6800 709 0
-9578 -709 6800 0
-6801 9578 0
-6801 710 0
-9578 -710 6801 0
-6802 9578 0
-6802 711 0
-9578 -711 6802 0
-6803 9579 0
-6803 674 0
-9579 -674 6803 0
-6804 9579 0
-6804 693 0
-9579 -693 6804 0
-6805 9579 0
-6805 712 0
-9579 -712 6805 0
-6806 9579 0
-6806 713 0
-9579 -713 6806 0
-6807 9579 0
-6807 714 0
-9579 -714 6807 0
-6808 9579 0
-6808 715 0
-9579 -715 6808 0
-6809 9579 0
-6809 716 0
-9579 -716 6809 0
-6810 9579 0
-6810 717 0
-9579 -717 6810 0
-6811 9579 0
-6811 718 0
-9579 -718 6811 0
-6812 9579 0
-6812 719 0
-9579 -719 6812 0
-6813 9579 0
-6813 720 0
-9579 -720 6813 0
-6814 9579 0
-6814 721 0
-9579 -721 6814 0
-6815 9579 0
-6815 722 0
-9579 -722 6815 0
-6816 9579 0
-6816 723 0
-9579 -723 6816 0
-6817 9579 0
-6817 724 0
-9579 -724 6817 0
-6818 9579 0
-6818 725 0
-9579 -725 6818 0
-6819 9579 0
-6819 726 0
-9579 -726 6819 0
-6820 9579 0
-6820 727 0
-9579 -727 6820 0
-6821 9579 0
-6821 728 0
-9579 -728 6821 0
-6822 9579 0
-6822 729 0
-9579 -729 6822 0
-6823 9580 0
-6823 675 0
-9580 -675 6823 0
-6824 9580 0
-6824 694 0
-9580 -694 6824 0
-6825 9580 0
-6825 712 0
-9580 -712 6825 0
-6826 9580 0
-6826 730 0
-9580 -730 6826 0
-6827 9580 0
-6827 731 0
-9580 -731 6827 0
-6828 9580 0
-6828 732 0
-9580 -732 6828 0
-6829 9580 0
-6829 733 0
-9580 -733 6829 0
-6830 9580 0
-6830 734 0
-9580 -734 6830 0
-6831 9580 0
-6831 735 0
-9580 -735 6831 0
-6832 9580 0
-6832 736 0
-9580 -736 6832 0
-6833 9580 0
-6833 737 0
-9580 -737 6833 0
-6834 9580 0
-6834 738 0
-9580 -738 6834 0
-6835 9580 0
-6835 739 0
-9580 -739 6835 0
-6836 9580 0
-6836 740 0
-9580 -740 6836 0
-6837 9580 0
-6837 741 0
-9580 -741 6837 0
-6838 9580 0
-6838 742 0
-9580 -742 6838 0
-6839 9580 0
-6839 743 0
-9580 -743 6839 0
-6840 9580 0
-6840 744 0
-9580 -744 6840 0
-6841 9580 0
-6841 745 0
-9580 -745 6841 0
-6842 9580 0
-6842 746 0
-9580 -746 6842 0
-6843 9581 0
-6843 676 0
-9581 -676 6843 0
-6844 9581 0
-6844 695 0
-9581 -695 6844 0
-6845 9581 0
-6845 713 0
-9581 -713 6845 0
-6846 9581 0
-6846 730 0
-9581 -730 6846 0
-6847 9581 0
-6847 747 0
-9581 -747 6847 0
-6848 9581 0
-6848 748 0
-9581 -748 6848 0
-6849 9581 0
-6849 749 0
-9581 -749 6849 0
-6850 9581 0
-6850 750 0
-9581 -750 6850 0
-6851 9581 0
-6851 751 0
-9581 -751 6851 0
-6852 9581 0
-6852 752 0
-9581 -752 6852 0
-6853 9581 0
-6853 753 0
-9581 -753 6853 0
-6854 9581 0
-6854 754 0
-9581 -754 6854 0
-6855 9581 0
-6855 755 0
-9581 -755 6855 0
-6856 9581 0
-6856 756 0
-9581 -756 6856 0
-6857 9581 0
-6857 757 0
-9581 -757 6857 0
-6858 9581 0
-6858 758 0
-9581 -758 6858 0
-6859 9581 0
-6859 759 0
-9581 -759 6859 0
-6860 9581 0
-6860 760 0
-9581 -760 6860 0
-6861 9581 0
-6861 761 0
-9581 -761 6861 0
-6862 9581 0
-6862 762 0
-9581 -762 6862 0
-6863 9582 0
-6863 677 0
-9582 -677 6863 0
-6864 9582 0
-6864 696 0
-9582 -696 6864 0
-6865 9582 0
-6865 714 0
-9582 -714 6865 0
-6866 9582 0
-6866 731 0
-9582 -731 6866 0
-6867 9582 0
-6867 747 0
-9582 -747 6867 0
-6868 9582 0
-6868 763 0
-9582 -763 6868 0
-6869 9582 0
-6869 764 0
-9582 -764 6869 0
-6870 9582 0
-6870 765 0
-9582 -765 6870 0
-6871 9582 0
-6871 766 0
-9582 -766 6871 0
-6872 9582 0
-6872 767 0
-9582 -767 6872 0
-6873 9582 0
-6873 768 0
-9582 -768 6873 0
-6874 9582 0
-6874 769 0
-9582 -769 6874 0
-6875 9582 0
-6875 770 0
-9582 -770 6875 0
-6876 9582 0
-6876 771 0
-9582 -771 6876 0
-6877 9582 0
-6877 772 0
-9582 -772 6877 0
-6878 9582 0
-6878 773 0
-9582 -773 6878 0
-6879 9582 0
-6879 774 0
-9582 -774 6879 0
-6880 9582 0
-6880 775 0
-9582 -775 6880 0
-6881 9582 0
-6881 776 0
-9582 -776 6881 0
-6882 9582 0
-6882 777 0
-9582 -777 6882 0
-6883 9583 0
-6883 678 0
-9583 -678 6883 0
-6884 9583 0
-6884 697 0
-9583 -697 6884 0
-6885 9583 0
-6885 715 0
-9583 -715 6885 0
-6886 9583 0
-6886 732 0
-9583 -732 6886 0
-6887 9583 0
-6887 748 0
-9583 -748 6887 0
-6888 9583 0
-6888 763 0
-9583 -763 6888 0
-6889 9583 0
-6889 778 0
-9583 -778 6889 0
-6890 9583 0
-6890 779 0
-9583 -779 6890 0
-6891 9583 0
-6891 780 0
-9583 -780 6891 0
-6892 9583 0
-6892 781 0
-9583 -781 6892 0
-6893 9583 0
-6893 782 0
-9583 -782 6893 0
-6894 9583 0
-6894 783 0
-9583 -783 6894 0
-6895 9583 0
-6895 784 0
-9583 -784 6895 0
-6896 9583 0
-6896 785 0
-9583 -785 6896 0
-6897 9583 0
-6897 786 0
-9583 -786 6897 0
-6898 9583 0
-6898 787 0
-9583 -787 6898 0
-6899 9583 0
-6899 788 0
-9583 -788 6899 0
-6900 9583 0
-6900 789 0
-9583 -789 6900 0
-6901 9583 0
-6901 790 0
-9583 -790 6901 0
-6902 9583 0
-6902 791 0
-9583 -791 6902 0
-6903 9584 0
-6903 679 0
-9584 -679 6903 0
-6904 9584 0
-6904 698 0
-9584 -698 6904 0
-6905 9584 0
-6905 716 0
-9584 -716 6905 0
-6906 9584 0
-6906 733 0
-9584 -733 6906 0
-6907 9584 0
-6907 749 0
-9584 -749 6907 0
-6908 9584 0
-6908 764 0
-9584 -764 6908 0
-6909 9584 0
-6909 778 0
-9584 -778 6909 0
-6910 9584 0
-6910 792 0
-9584 -792 6910 0
-6911 9584 0
-6911 793 0
-9584 -793 6911 0
-6912 9584 0
-6912 794 0
-9584 -794 6912 0
-6913 9584 0
-6913 795 0
-9584 -795 6913 0
-6914 9584 0
-6914 796 0
-9584 -796 6914 0
-6915 9584 0
-6915 797 0
-9584 -797 6915 0
-6916 9584 0
-6916 798 0
-9584 -798 6916 0
-6917 9584 0
-6917 799 0
-9584 -799 6917 0
-6918 9584 0
-6918 800 0
-9584 -800 6918 0
-6919 9584 0
-6919 801 0
-9584 -801 6919 0
-6920 9584 0
-6920 802 0
-9584 -802 6920 0
-6921 9584 0
-6921 803 0
-9584 -803 6921 0
-6922 9584 0
-6922 804 0
-9584 -804 6922 0
-6923 9585 0
-6923 680 0
-9585 -680 6923 0
-6924 9585 0
-6924 699 0
-9585 -699 6924 0
-6925 9585 0
-6925 717 0
-9585 -717 6925 0
-6926 9585 0
-6926 734 0
-9585 -734 6926 0
-6927 9585 0
-6927 750 0
-9585 -750 6927 0
-6928 9585 0
-6928 765 0
-9585 -765 6928 0
-6929 9585 0
-6929 779 0
-9585 -779 6929 0
-6930 9585 0
-6930 792 0
-9585 -792 6930 0
-6931 9585 0
-6931 805 0
-9585 -805 6931 0
-6932 9585 0
-6932 806 0
-9585 -806 6932 0
-6933 9585 0
-6933 807 0
-9585 -807 6933 0
-6934 9585 0
-6934 808 0
-9585 -808 6934 0
-6935 9585 0
-6935 809 0
-9585 -809 6935 0
-6936 9585 0
-6936 810 0
-9585 -810 6936 0
-6937 9585 0
-6937 811 0
-9585 -811 6937 0
-6938 9585 0
-6938 812 0
-9585 -812 6938 0
-6939 9585 0
-6939 813 0
-9585 -813 6939 0
-6940 9585 0
-6940 814 0
-9585 -814 6940 0
-6941 9585 0
-6941 815 0
-9585 -815 6941 0
-6942 9585 0
-6942 816 0
-9585 -816 6942 0
-6943 9586 0
-6943 681 0
-9586 -681 6943 0
-6944 9586 0
-6944 700 0
-9586 -700 6944 0
-6945 9586 0
-6945 718 0
-9586 -718 6945 0
-6946 9586 0
-6946 735 0
-9586 -735 6946 0
-6947 9586 0
-6947 751 0
-9586 -751 6947 0
-6948 9586 0
-6948 766 0
-9586 -766 6948 0
-6949 9586 0
-6949 780 0
-9586 -780 6949 0
-6950 9586 0
-6950 793 0
-9586 -793 6950 0
-6951 9586 0
-6951 805 0
-9586 -805 6951 0
-6952 9586 0
-6952 817 0
-9586 -817 6952 0
-6953 9586 0
-6953 818 0
-9586 -818 6953 0
-6954 9586 0
-6954 819 0
-9586 -819 6954 0
-6955 9586 0
-6955 820 0
-9586 -820 6955 0
-6956 9586 0
-6956 821 0
-9586 -821 6956 0
-6957 9586 0
-6957 822 0
-9586 -822 6957 0
-6958 9586 0
-6958 823 0
-9586 -823 6958 0
-6959 9586 0
-6959 824 0
-9586 -824 6959 0
-6960 9586 0
-6960 825 0
-9586 -825 6960 0
-6961 9586 0
-6961 826 0
-9586 -826 6961 0
-6962 9586 0
-6962 827 0
-9586 -827 6962 0
-6963 9587 0
-6963 682 0
-9587 -682 6963 0
-6964 9587 0
-6964 701 0
-9587 -701 6964 0
-6965 9587 0
-6965 719 0
-9587 -719 6965 0
-6966 9587 0
-6966 736 0
-9587 -736 6966 0
-6967 9587 0
-6967 752 0
-9587 -752 6967 0
-6968 9587 0
-6968 767 0
-9587 -767 6968 0
-6969 9587 0
-6969 781 0
-9587 -781 6969 0
-6970 9587 0
-6970 794 0
-9587 -794 6970 0
-6971 9587 0
-6971 806 0
-9587 -806 6971 0
-6972 9587 0
-6972 817 0
-9587 -817 6972 0
-6973 9587 0
-6973 828 0
-9587 -828 6973 0
-6974 9587 0
-6974 829 0
-9587 -829 6974 0
-6975 9587 0
-6975 830 0
-9587 -830 6975 0
-6976 9587 0
-6976 831 0
-9587 -831 6976 0
-6977 9587 0
-6977 832 0
-9587 -832 6977 0
-6978 9587 0
-6978 833 0
-9587 -833 6978 0
-6979 9587 0
-6979 834 0
-9587 -834 6979 0
-6980 9587 0
-6980 835 0
-9587 -835 6980 0
-6981 9587 0
-6981 836 0
-9587 -836 6981 0
-6982 9587 0
-6982 837 0
-9587 -837 6982 0
-6983 9588 0
-6983 683 0
-9588 -683 6983 0
-6984 9588 0
-6984 702 0
-9588 -702 6984 0
-6985 9588 0
-6985 720 0
-9588 -720 6985 0
-6986 9588 0
-6986 737 0
-9588 -737 6986 0
-6987 9588 0
-6987 753 0
-9588 -753 6987 0
-6988 9588 0
-6988 768 0
-9588 -768 6988 0
-6989 9588 0
-6989 782 0
-9588 -782 6989 0
-6990 9588 0
-6990 795 0
-9588 -795 6990 0
-6991 9588 0
-6991 807 0
-9588 -807 6991 0
-6992 9588 0
-6992 818 0
-9588 -818 6992 0
-6993 9588 0
-6993 828 0
-9588 -828 6993 0
-6994 9588 0
-6994 838 0
-9588 -838 6994 0
-6995 9588 0
-6995 839 0
-9588 -839 6995 0
-6996 9588 0
-6996 840 0
-9588 -840 6996 0
-6997 9588 0
-6997 841 0
-9588 -841 6997 0
-6998 9588 0
-6998 842 0
-9588 -842 6998 0
-6999 9588 0
-6999 843 0
-9588 -843 6999 0
-7000 9588 0
-7000 844 0
-9588 -844 7000 0
-7001 9588 0
-7001 845 0
-9588 -845 7001 0
-7002 9588 0
-7002 846 0
-9588 -846 7002 0
-7003 9589 0
-7003 684 0
-9589 -684 7003 0
-7004 9589 0
-7004 703 0
-9589 -703 7004 0
-7005 9589 0
-7005 721 0
-9589 -721 7005 0
-7006 9589 0
-7006 738 0
-9589 -738 7006 0
-7007 9589 0
-7007 754 0
-9589 -754 7007 0
-7008 9589 0
-7008 769 0
-9589 -769 7008 0
-7009 9589 0
-7009 783 0
-9589 -783 7009 0
-7010 9589 0
-7010 796 0
-9589 -796 7010 0
-7011 9589 0
-7011 808 0
-9589 -808 7011 0
-7012 9589 0
-7012 819 0
-9589 -819 7012 0
-7013 9589 0
-7013 829 0
-9589 -829 7013 0
-7014 9589 0
-7014 838 0
-9589 -838 7014 0
-7015 9589 0
-7015 847 0
-9589 -847 7015 0
-7016 9589 0
-7016 848 0
-9589 -848 7016 0
-7017 9589 0
-7017 849 0
-9589 -849 7017 0
-7018 9589 0
-7018 850 0
-9589 -850 7018 0
-7019 9589 0
-7019 851 0
-9589 -851 7019 0
-7020 9589 0
-7020 852 0
-9589 -852 7020 0
-7021 9589 0
-7021 853 0
-9589 -853 7021 0
-7022 9589 0
-7022 854 0
-9589 -854 7022 0
-7023 9590 0
-7023 685 0
-9590 -685 7023 0
-7024 9590 0
-7024 704 0
-9590 -704 7024 0
-7025 9590 0
-7025 722 0
-9590 -722 7025 0
-7026 9590 0
-7026 739 0
-9590 -739 7026 0
-7027 9590 0
-7027 755 0
-9590 -755 7027 0
-7028 9590 0
-7028 770 0
-9590 -770 7028 0
-7029 9590 0
-7029 784 0
-9590 -784 7029 0
-7030 9590 0
-7030 797 0
-9590 -797 7030 0
-7031 9590 0
-7031 809 0
-9590 -809 7031 0
-7032 9590 0
-7032 820 0
-9590 -820 7032 0
-7033 9590 0
-7033 830 0
-9590 -830 7033 0
-7034 9590 0
-7034 839 0
-9590 -839 7034 0
-7035 9590 0
-7035 847 0
-9590 -847 7035 0
-7036 9590 0
-7036 855 0
-9590 -855 7036 0
-7037 9590 0
-7037 856 0
-9590 -856 7037 0
-7038 9590 0
-7038 857 0
-9590 -857 7038 0
-7039 9590 0
-7039 858 0
-9590 -858 7039 0
-7040 9590 0
-7040 859 0
-9590 -859 7040 0
-7041 9590 0
-7041 860 0
-9590 -860 7041 0
-7042 9590 0
-7042 861 0
-9590 -861 7042 0
-7043 9591 0
-7043 686 0
-9591 -686 7043 0
-7044 9591 0
-7044 705 0
-9591 -705 7044 0
-7045 9591 0
-7045 723 0
-9591 -723 7045 0
-7046 9591 0
-7046 740 0
-9591 -740 7046 0
-7047 9591 0
-7047 756 0
-9591 -756 7047 0
-7048 9591 0
-7048 771 0
-9591 -771 7048 0
-7049 9591 0
-7049 785 0
-9591 -785 7049 0
-7050 9591 0
-7050 798 0
-9591 -798 7050 0
-7051 9591 0
-7051 810 0
-9591 -810 7051 0
-7052 9591 0
-7052 821 0
-9591 -821 7052 0
-7053 9591 0
-7053 831 0
-9591 -831 7053 0
-7054 9591 0
-7054 840 0
-9591 -840 7054 0
-7055 9591 0
-7055 848 0
-9591 -848 7055 0
-7056 9591 0
-7056 855 0
-9591 -855 7056 0
-7057 9591 0
-7057 862 0
-9591 -862 7057 0
-7058 9591 0
-7058 863 0
-9591 -863 7058 0
-7059 9591 0
-7059 864 0
-9591 -864 7059 0
-7060 9591 0
-7060 865 0
-9591 -865 7060 0
-7061 9591 0
-7061 866 0
-9591 -866 7061 0
-7062 9591 0
-7062 867 0
-9591 -867 7062 0
-7063 9592 0
-7063 687 0
-9592 -687 7063 0
-7064 9592 0
-7064 706 0
-9592 -706 7064 0
-7065 9592 0
-7065 724 0
-9592 -724 7065 0
-7066 9592 0
-7066 741 0
-9592 -741 7066 0
-7067 9592 0
-7067 757 0
-9592 -757 7067 0
-7068 9592 0
-7068 772 0
-9592 -772 7068 0
-7069 9592 0
-7069 786 0
-9592 -786 7069 0
-7070 9592 0
-7070 799 0
-9592 -799 7070 0
-7071 9592 0
-7071 811 0
-9592 -811 7071 0
-7072 9592 0
-7072 822 0
-9592 -822 7072 0
-7073 9592 0
-7073 832 0
-9592 -832 7073 0
-7074 9592 0
-7074 841 0
-9592 -841 7074 0
-7075 9592 0
-7075 849 0
-9592 -849 7075 0
-7076 9592 0
-7076 856 0
-9592 -856 7076 0
-7077 9592 0
-7077 862 0
-9592 -862 7077 0
-7078 9592 0
-7078 868 0
-9592 -868 7078 0
-7079 9592 0
-7079 869 0
-9592 -869 7079 0
-7080 9592 0
-7080 870 0
-9592 -870 7080 0
-7081 9592 0
-7081 871 0
-9592 -871 7081 0
-7082 9592 0
-7082 872 0
-9592 -872 7082 0
-7083 9593 0
-7083 688 0
-9593 -688 7083 0
-7084 9593 0
-7084 707 0
-9593 -707 7084 0
-7085 9593 0
-7085 725 0
-9593 -725 7085 0
-7086 9593 0
-7086 742 0
-9593 -742 7086 0
-7087 9593 0
-7087 758 0
-9593 -758 7087 0
-7088 9593 0
-7088 773 0
-9593 -773 7088 0
-7089 9593 0
-7089 787 0
-9593 -787 7089 0
-7090 9593 0
-7090 800 0
-9593 -800 7090 0
-7091 9593 0
-7091 812 0
-9593 -812 7091 0
-7092 9593 0
-7092 823 0
-9593 -823 7092 0
-7093 9593 0
-7093 833 0
-9593 -833 7093 0
-7094 9593 0
-7094 842 0
-9593 -842 7094 0
-7095 9593 0
-7095 850 0
-9593 -850 7095 0
-7096 9593 0
-7096 857 0
-9593 -857 7096 0
-7097 9593 0
-7097 863 0
-9593 -863 7097 0
-7098 9593 0
-7098 868 0
-9593 -868 7098 0
-7099 9593 0
-7099 873 0
-9593 -873 7099 0
-7100 9593 0
-7100 874 0
-9593 -874 7100 0
-7101 9593 0
-7101 875 0
-9593 -875 7101 0
-7102 9593 0
-7102 876 0
-9593 -876 7102 0
-7103 9594 0
-7103 689 0
-9594 -689 7103 0
-7104 9594 0
-7104 708 0
-9594 -708 7104 0
-7105 9594 0
-7105 726 0
-9594 -726 7105 0
-7106 9594 0
-7106 743 0
-9594 -743 7106 0
-7107 9594 0
-7107 759 0
-9594 -759 7107 0
-7108 9594 0
-7108 774 0
-9594 -774 7108 0
-7109 9594 0
-7109 788 0
-9594 -788 7109 0
-7110 9594 0
-7110 801 0
-9594 -801 7110 0
-7111 9594 0
-7111 813 0
-9594 -813 7111 0
-7112 9594 0
-7112 824 0
-9594 -824 7112 0
-7113 9594 0
-7113 834 0
-9594 -834 7113 0
-7114 9594 0
-7114 843 0
-9594 -843 7114 0
-7115 9594 0
-7115 851 0
-9594 -851 7115 0
-7116 9594 0
-7116 858 0
-9594 -858 7116 0
-7117 9594 0
-7117 864 0
-9594 -864 7117 0
-7118 9594 0
-7118 869 0
-9594 -869 7118 0
-7119 9594 0
-7119 873 0
-9594 -873 7119 0
-7120 9594 0
-7120 877 0
-9594 -877 7120 0
-7121 9594 0
-7121 878 0
-9594 -878 7121 0
-7122 9594 0
-7122 879 0
-9594 -879 7122 0
-7123 9595 0
-7123 690 0
-9595 -690 7123 0
-7124 9595 0
-7124 709 0
-9595 -709 7124 0
-7125 9595 0
-7125 727 0
-9595 -727 7125 0
-7126 9595 0
-7126 744 0
-9595 -744 7126 0
-7127 9595 0
-7127 760 0
-9595 -760 7127 0
-7128 9595 0
-7128 775 0
-9595 -775 7128 0
-7129 9595 0
-7129 789 0
-9595 -789 7129 0
-7130 9595 0
-7130 802 0
-9595 -802 7130 0
-7131 9595 0
-7131 814 0
-9595 -814 7131 0
-7132 9595 0
-7132 825 0
-9595 -825 7132 0
-7133 9595 0
-7133 835 0
-9595 -835 7133 0
-7134 9595 0
-7134 844 0
-9595 -844 7134 0
-7135 9595 0
-7135 852 0
-9595 -852 7135 0
-7136 9595 0
-7136 859 0
-9595 -859 7136 0
-7137 9595 0
-7137 865 0
-9595 -865 7137 0
-7138 9595 0
-7138 870 0
-9595 -870 7138 0
-7139 9595 0
-7139 874 0
-9595 -874 7139 0
-7140 9595 0
-7140 877 0
-9595 -877 7140 0
-7141 9595 0
-7141 880 0
-9595 -880 7141 0
-7142 9595 0
-7142 881 0
-9595 -881 7142 0
-7143 9596 0
-7143 691 0
-9596 -691 7143 0
-7144 9596 0
-7144 710 0
-9596 -710 7144 0
-7145 9596 0
-7145 728 0
-9596 -728 7145 0
-7146 9596 0
-7146 745 0
-9596 -745 7146 0
-7147 9596 0
-7147 761 0
-9596 -761 7147 0
-7148 9596 0
-7148 776 0
-9596 -776 7148 0
-7149 9596 0
-7149 790 0
-9596 -790 7149 0
-7150 9596 0
-7150 803 0
-9596 -803 7150 0
-7151 9596 0
-7151 815 0
-9596 -815 7151 0
-7152 9596 0
-7152 826 0
-9596 -826 7152 0
-7153 9596 0
-7153 836 0
-9596 -836 7153 0
-7154 9596 0
-7154 845 0
-9596 -845 7154 0
-7155 9596 0
-7155 853 0
-9596 -853 7155 0
-7156 9596 0
-7156 860 0
-9596 -860 7156 0
-7157 9596 0
-7157 866 0
-9596 -866 7157 0
-7158 9596 0
-7158 871 0
-9596 -871 7158 0
-7159 9596 0
-7159 875 0
-9596 -875 7159 0
-7160 9596 0
-7160 878 0
-9596 -878 7160 0
-7161 9596 0
-7161 880 0
-9596 -880 7161 0
-7162 9596 0
-7162 882 0
-9596 -882 7162 0
-7163 9597 0
-7163 692 0
-9597 -692 7163 0
-7164 9597 0
-7164 711 0
-9597 -711 7164 0
-7165 9597 0
-7165 729 0
-9597 -729 7165 0
-7166 9597 0
-7166 746 0
-9597 -746 7166 0
-7167 9597 0
-7167 762 0
-9597 -762 7167 0
-7168 9597 0
-7168 777 0
-9597 -777 7168 0
-7169 9597 0
-7169 791 0
-9597 -791 7169 0
-7170 9597 0
-7170 804 0
-9597 -804 7170 0
-7171 9597 0
-7171 816 0
-9597 -816 7171 0
-7172 9597 0
-7172 827 0
-9597 -827 7172 0
-7173 9597 0
-7173 837 0
-9597 -837 7173 0
-7174 9597 0
-7174 846 0
-9597 -846 7174 0
-7175 9597 0
-7175 854 0
-9597 -854 7175 0
-7176 9597 0
-7176 861 0
-9597 -861 7176 0
-7177 9597 0
-7177 867 0
-9597 -867 7177 0
-7178 9597 0
-7178 872 0
-9597 -872 7178 0
-7179 9597 0
-7179 876 0
-9597 -876 7179 0
-7180 9597 0
-7180 879 0
-9597 -879 7180 0
-7181 9597 0
-7181 881 0
-9597 -881 7181 0
-7182 9597 0
-7182 882 0
-9597 -882 7182 0
-7183 9598 0
-7183 673 0
-9598 -673 7183 0
-7184 9598 0
-7184 674 0
-9598 -674 7184 0
-7185 9598 0
-7185 675 0
-9598 -675 7185 0
-7186 9598 0
-7186 676 0
-9598 -676 7186 0
-7187 9598 0
-7187 677 0
-9598 -677 7187 0
-7188 9598 0
-7188 678 0
-9598 -678 7188 0
-7189 9598 0
-7189 679 0
-9598 -679 7189 0
-7190 9598 0
-7190 680 0
-9598 -680 7190 0
-7191 9598 0
-7191 681 0
-9598 -681 7191 0
-7192 9598 0
-7192 682 0
-9598 -682 7192 0
-7193 9598 0
-7193 683 0
-9598 -683 7193 0
-7194 9598 0
-7194 684 0
-9598 -684 7194 0
-7195 9598 0
-7195 685 0
-9598 -685 7195 0
-7196 9598 0
-7196 686 0
-9598 -686 7196 0
-7197 9598 0
-7197 687 0
-9598 -687 7197 0
-7198 9598 0
-7198 688 0
-9598 -688 7198 0
-7199 9598 0
-7199 689 0
-9598 -689 7199 0
-7200 9598 0
-7200 690 0
-9598 -690 7200 0
-7201 9598 0
-7201 691 0
-9598 -691 7201 0
-7202 9598 0
-7202 692 0
-9598 -692 7202 0
-7203 9599 0
-7203 673 0
-9599 -673 7203 0
-7204 9599 0
-7204 693 0
-9599 -693 7204 0
-7205 9599 0
-7205 694 0
-9599 -694 7205 0
-7206 9599 0
-7206 695 0
-9599 -695 7206 0
-7207 9599 0
-7207 696 0
-9599 -696 7207 0
-7208 9599 0
-7208 697 0
-9599 -697 7208 0
-7209 9599 0
-7209 698 0
-9599 -698 7209 0
-7210 9599 0
-7210 699 0
-9599 -699 7210 0
-7211 9599 0
-7211 700 0
-9599 -700 7211 0
-7212 9599 0
-7212 701 0
-9599 -701 7212 0
-7213 9599 0
-7213 702 0
-9599 -702 7213 0
-7214 9599 0
-7214 703 0
-9599 -703 7214 0
-7215 9599 0
-7215 704 0
-9599 -704 7215 0
-7216 9599 0
-7216 705 0
-9599 -705 7216 0
-7217 9599 0
-7217 706 0
-9599 -706 7217 0
-7218 9599 0
-7218 707 0
-9599 -707 7218 0
-7219 9599 0
-7219 708 0
-9599 -708 7219 0
-7220 9599 0
-7220 709 0
-9599 -709 7220 0
-7221 9599 0
-7221 710 0
-9599 -710 7221 0
-7222 9599 0
-7222 711 0
-9599 -711 7222 0
-7223 9600 0
-7223 674 0
-9600 -674 7223 0
-7224 9600 0
-7224 693 0
-9600 -693 7224 0
-7225 9600 0
-7225 712 0
-9600 -712 7225 0
-7226 9600 0
-7226 713 0
-9600 -713 7226 0
-7227 9600 0
-7227 714 0
-9600 -714 7227 0
-7228 9600 0
-7228 715 0
-9600 -715 7228 0
-7229 9600 0
-7229 716 0
-9600 -716 7229 0
-7230 9600 0
-7230 717 0
-9600 -717 7230 0
-7231 9600 0
-7231 718 0
-9600 -718 7231 0
-7232 9600 0
-7232 719 0
-9600 -719 7232 0
-7233 9600 0
-7233 720 0
-9600 -720 7233 0
-7234 9600 0
-7234 721 0
-9600 -721 7234 0
-7235 9600 0
-7235 722 0
-9600 -722 7235 0
-7236 9600 0
-7236 723 0
-9600 -723 7236 0
-7237 9600 0
-7237 724 0
-9600 -724 7237 0
-7238 9600 0
-7238 725 0
-9600 -725 7238 0
-7239 9600 0
-7239 726 0
-9600 -726 7239 0
-7240 9600 0
-7240 727 0
-9600 -727 7240 0
-7241 9600 0
-7241 728 0
-9600 -728 7241 0
-7242 9600 0
-7242 729 0
-9600 -729 7242 0
-7243 9601 0
-7243 675 0
-9601 -675 7243 0
-7244 9601 0
-7244 694 0
-9601 -694 7244 0
-7245 9601 0
-7245 712 0
-9601 -712 7245 0
-7246 9601 0
-7246 730 0
-9601 -730 7246 0
-7247 9601 0
-7247 731 0
-9601 -731 7247 0
-7248 9601 0
-7248 732 0
-9601 -732 7248 0
-7249 9601 0
-7249 733 0
-9601 -733 7249 0
-7250 9601 0
-7250 734 0
-9601 -734 7250 0
-7251 9601 0
-7251 735 0
-9601 -735 7251 0
-7252 9601 0
-7252 736 0
-9601 -736 7252 0
-7253 9601 0
-7253 737 0
-9601 -737 7253 0
-7254 9601 0
-7254 738 0
-9601 -738 7254 0
-7255 9601 0
-7255 739 0
-9601 -739 7255 0
-7256 9601 0
-7256 740 0
-9601 -740 7256 0
-7257 9601 0
-7257 741 0
-9601 -741 7257 0
-7258 9601 0
-7258 742 0
-9601 -742 7258 0
-7259 9601 0
-7259 743 0
-9601 -743 7259 0
-7260 9601 0
-7260 744 0
-9601 -744 7260 0
-7261 9601 0
-7261 745 0
-9601 -745 7261 0
-7262 9601 0
-7262 746 0
-9601 -746 7262 0
-7263 9602 0
-7263 676 0
-9602 -676 7263 0
-7264 9602 0
-7264 695 0
-9602 -695 7264 0
-7265 9602 0
-7265 713 0
-9602 -713 7265 0
-7266 9602 0
-7266 730 0
-9602 -730 7266 0
-7267 9602 0
-7267 747 0
-9602 -747 7267 0
-7268 9602 0
-7268 748 0
-9602 -748 7268 0
-7269 9602 0
-7269 749 0
-9602 -749 7269 0
-7270 9602 0
-7270 750 0
-9602 -750 7270 0
-7271 9602 0
-7271 751 0
-9602 -751 7271 0
-7272 9602 0
-7272 752 0
-9602 -752 7272 0
-7273 9602 0
-7273 753 0
-9602 -753 7273 0
-7274 9602 0
-7274 754 0
-9602 -754 7274 0
-7275 9602 0
-7275 755 0
-9602 -755 7275 0
-7276 9602 0
-7276 756 0
-9602 -756 7276 0
-7277 9602 0
-7277 757 0
-9602 -757 7277 0
-7278 9602 0
-7278 758 0
-9602 -758 7278 0
-7279 9602 0
-7279 759 0
-9602 -759 7279 0
-7280 9602 0
-7280 760 0
-9602 -760 7280 0
-7281 9602 0
-7281 761 0
-9602 -761 7281 0
-7282 9602 0
-7282 762 0
-9602 -762 7282 0
-7283 9603 0
-7283 677 0
-9603 -677 7283 0
-7284 9603 0
-7284 696 0
-9603 -696 7284 0
-7285 9603 0
-7285 714 0
-9603 -714 7285 0
-7286 9603 0
-7286 731 0
-9603 -731 7286 0
-7287 9603 0
-7287 747 0
-9603 -747 7287 0
-7288 9603 0
-7288 763 0
-9603 -763 7288 0
-7289 9603 0
-7289 764 0
-9603 -764 7289 0
-7290 9603 0
-7290 765 0
-9603 -765 7290 0
-7291 9603 0
-7291 766 0
-9603 -766 7291 0
-7292 9603 0
-7292 767 0
-9603 -767 7292 0
-7293 9603 0
-7293 768 0
-9603 -768 7293 0
-7294 9603 0
-7294 769 0
-9603 -769 7294 0
-7295 9603 0
-7295 770 0
-9603 -770 7295 0
-7296 9603 0
-7296 771 0
-9603 -771 7296 0
-7297 9603 0
-7297 772 0
-9603 -772 7297 0
-7298 9603 0
-7298 773 0
-9603 -773 7298 0
-7299 9603 0
-7299 774 0
-9603 -774 7299 0
-7300 9603 0
-7300 775 0
-9603 -775 7300 0
-7301 9603 0
-7301 776 0
-9603 -776 7301 0
-7302 9603 0
-7302 777 0
-9603 -777 7302 0
-7303 9604 0
-7303 678 0
-9604 -678 7303 0
-7304 9604 0
-7304 697 0
-9604 -697 7304 0
-7305 9604 0
-7305 715 0
-9604 -715 7305 0
-7306 9604 0
-7306 732 0
-9604 -732 7306 0
-7307 9604 0
-7307 748 0
-9604 -748 7307 0
-7308 9604 0
-7308 763 0
-9604 -763 7308 0
-7309 9604 0
-7309 778 0
-9604 -778 7309 0
-7310 9604 0
-7310 779 0
-9604 -779 7310 0
-7311 9604 0
-7311 780 0
-9604 -780 7311 0
-7312 9604 0
-7312 781 0
-9604 -781 7312 0
-7313 9604 0
-7313 782 0
-9604 -782 7313 0
-7314 9604 0
-7314 783 0
-9604 -783 7314 0
-7315 9604 0
-7315 784 0
-9604 -784 7315 0
-7316 9604 0
-7316 785 0
-9604 -785 7316 0
-7317 9604 0
-7317 786 0
-9604 -786 7317 0
-7318 9604 0
-7318 787 0
-9604 -787 7318 0
-7319 9604 0
-7319 788 0
-9604 -788 7319 0
-7320 9604 0
-7320 789 0
-9604 -789 7320 0
-7321 9604 0
-7321 790 0
-9604 -790 7321 0
-7322 9604 0
-7322 791 0
-9604 -791 7322 0
-7323 9605 0
-7323 679 0
-9605 -679 7323 0
-7324 9605 0
-7324 698 0
-9605 -698 7324 0
-7325 9605 0
-7325 716 0
-9605 -716 7325 0
-7326 9605 0
-7326 733 0
-9605 -733 7326 0
-7327 9605 0
-7327 749 0
-9605 -749 7327 0
-7328 9605 0
-7328 764 0
-9605 -764 7328 0
-7329 9605 0
-7329 778 0
-9605 -778 7329 0
-7330 9605 0
-7330 792 0
-9605 -792 7330 0
-7331 9605 0
-7331 793 0
-9605 -793 7331 0
-7332 9605 0
-7332 794 0
-9605 -794 7332 0
-7333 9605 0
-7333 795 0
-9605 -795 7333 0
-7334 9605 0
-7334 796 0
-9605 -796 7334 0
-7335 9605 0
-7335 797 0
-9605 -797 7335 0
-7336 9605 0
-7336 798 0
-9605 -798 7336 0
-7337 9605 0
-7337 799 0
-9605 -799 7337 0
-7338 9605 0
-7338 800 0
-9605 -800 7338 0
-7339 9605 0
-7339 801 0
-9605 -801 7339 0
-7340 9605 0
-7340 802 0
-9605 -802 7340 0
-7341 9605 0
-7341 803 0
-9605 -803 7341 0
-7342 9605 0
-7342 804 0
-9605 -804 7342 0
-7343 9606 0
-7343 680 0
-9606 -680 7343 0
-7344 9606 0
-7344 699 0
-9606 -699 7344 0
-7345 9606 0
-7345 717 0
-9606 -717 7345 0
-7346 9606 0
-7346 734 0
-9606 -734 7346 0
-7347 9606 0
-7347 750 0
-9606 -750 7347 0
-7348 9606 0
-7348 765 0
-9606 -765 7348 0
-7349 9606 0
-7349 779 0
-9606 -779 7349 0
-7350 9606 0
-7350 792 0
-9606 -792 7350 0
-7351 9606 0
-7351 805 0
-9606 -805 7351 0
-7352 9606 0
-7352 806 0
-9606 -806 7352 0
-7353 9606 0
-7353 807 0
-9606 -807 7353 0
-7354 9606 0
-7354 808 0
-9606 -808 7354 0
-7355 9606 0
-7355 809 0
-9606 -809 7355 0
-7356 9606 0
-7356 810 0
-9606 -810 7356 0
-7357 9606 0
-7357 811 0
-9606 -811 7357 0
-7358 9606 0
-7358 812 0
-9606 -812 7358 0
-7359 9606 0
-7359 813 0
-9606 -813 7359 0
-7360 9606 0
-7360 814 0
-9606 -814 7360 0
-7361 9606 0
-7361 815 0
-9606 -815 7361 0
-7362 9606 0
-7362 816 0
-9606 -816 7362 0
-7363 9607 0
-7363 681 0
-9607 -681 7363 0
-7364 9607 0
-7364 700 0
-9607 -700 7364 0
-7365 9607 0
-7365 718 0
-9607 -718 7365 0
-7366 9607 0
-7366 735 0
-9607 -735 7366 0
-7367 9607 0
-7367 751 0
-9607 -751 7367 0
-7368 9607 0
-7368 766 0
-9607 -766 7368 0
-7369 9607 0
-7369 780 0
-9607 -780 7369 0
-7370 9607 0
-7370 793 0
-9607 -793 7370 0
-7371 9607 0
-7371 805 0
-9607 -805 7371 0
-7372 9607 0
-7372 817 0
-9607 -817 7372 0
-7373 9607 0
-7373 818 0
-9607 -818 7373 0
-7374 9607 0
-7374 819 0
-9607 -819 7374 0
-7375 9607 0
-7375 820 0
-9607 -820 7375 0
-7376 9607 0
-7376 821 0
-9607 -821 7376 0
-7377 9607 0
-7377 822 0
-9607 -822 7377 0
-7378 9607 0
-7378 823 0
-9607 -823 7378 0
-7379 9607 0
-7379 824 0
-9607 -824 7379 0
-7380 9607 0
-7380 825 0
-9607 -825 7380 0
-7381 9607 0
-7381 826 0
-9607 -826 7381 0
-7382 9607 0
-7382 827 0
-9607 -827 7382 0
-7383 9608 0
-7383 682 0
-9608 -682 7383 0
-7384 9608 0
-7384 701 0
-9608 -701 7384 0
-7385 9608 0
-7385 719 0
-9608 -719 7385 0
-7386 9608 0
-7386 736 0
-9608 -736 7386 0
-7387 9608 0
-7387 752 0
-9608 -752 7387 0
-7388 9608 0
-7388 767 0
-9608 -767 7388 0
-7389 9608 0
-7389 781 0
-9608 -781 7389 0
-7390 9608 0
-7390 794 0
-9608 -794 7390 0
-7391 9608 0
-7391 806 0
-9608 -806 7391 0
-7392 9608 0
-7392 817 0
-9608 -817 7392 0
-7393 9608 0
-7393 828 0
-9608 -828 7393 0
-7394 9608 0
-7394 829 0
-9608 -829 7394 0
-7395 9608 0
-7395 830 0
-9608 -830 7395 0
-7396 9608 0
-7396 831 0
-9608 -831 7396 0
-7397 9608 0
-7397 832 0
-9608 -832 7397 0
-7398 9608 0
-7398 833 0
-9608 -833 7398 0
-7399 9608 0
-7399 834 0
-9608 -834 7399 0
-7400 9608 0
-7400 835 0
-9608 -835 7400 0
-7401 9608 0
-7401 836 0
-9608 -836 7401 0
-7402 9608 0
-7402 837 0
-9608 -837 7402 0
-7403 9609 0
-7403 683 0
-9609 -683 7403 0
-7404 9609 0
-7404 702 0
-9609 -702 7404 0
-7405 9609 0
-7405 720 0
-9609 -720 7405 0
-7406 9609 0
-7406 737 0
-9609 -737 7406 0
-7407 9609 0
-7407 753 0
-9609 -753 7407 0
-7408 9609 0
-7408 768 0
-9609 -768 7408 0
-7409 9609 0
-7409 782 0
-9609 -782 7409 0
-7410 9609 0
-7410 795 0
-9609 -795 7410 0
-7411 9609 0
-7411 807 0
-9609 -807 7411 0
-7412 9609 0
-7412 818 0
-9609 -818 7412 0
-7413 9609 0
-7413 828 0
-9609 -828 7413 0
-7414 9609 0
-7414 838 0
-9609 -838 7414 0
-7415 9609 0
-7415 839 0
-9609 -839 7415 0
-7416 9609 0
-7416 840 0
-9609 -840 7416 0
-7417 9609 0
-7417 841 0
-9609 -841 7417 0
-7418 9609 0
-7418 842 0
-9609 -842 7418 0
-7419 9609 0
-7419 843 0
-9609 -843 7419 0
-7420 9609 0
-7420 844 0
-9609 -844 7420 0
-7421 9609 0
-7421 845 0
-9609 -845 7421 0
-7422 9609 0
-7422 846 0
-9609 -846 7422 0
-7423 9610 0
-7423 684 0
-9610 -684 7423 0
-7424 9610 0
-7424 703 0
-9610 -703 7424 0
-7425 9610 0
-7425 721 0
-9610 -721 7425 0
-7426 9610 0
-7426 738 0
-9610 -738 7426 0
-7427 9610 0
-7427 754 0
-9610 -754 7427 0
-7428 9610 0
-7428 769 0
-9610 -769 7428 0
-7429 9610 0
-7429 783 0
-9610 -783 7429 0
-7430 9610 0
-7430 796 0
-9610 -796 7430 0
-7431 9610 0
-7431 808 0
-9610 -808 7431 0
-7432 9610 0
-7432 819 0
-9610 -819 7432 0
-7433 9610 0
-7433 829 0
-9610 -829 7433 0
-7434 9610 0
-7434 838 0
-9610 -838 7434 0
-7435 9610 0
-7435 847 0
-9610 -847 7435 0
-7436 9610 0
-7436 848 0
-9610 -848 7436 0
-7437 9610 0
-7437 849 0
-9610 -849 7437 0
-7438 9610 0
-7438 850 0
-9610 -850 7438 0
-7439 9610 0
-7439 851 0
-9610 -851 7439 0
-7440 9610 0
-7440 852 0
-9610 -852 7440 0
-7441 9610 0
-7441 853 0
-9610 -853 7441 0
-7442 9610 0
-7442 854 0
-9610 -854 7442 0
-7443 9611 0
-7443 685 0
-9611 -685 7443 0
-7444 9611 0
-7444 704 0
-9611 -704 7444 0
-7445 9611 0
-7445 722 0
-9611 -722 7445 0
-7446 9611 0
-7446 739 0
-9611 -739 7446 0
-7447 9611 0
-7447 755 0
-9611 -755 7447 0
-7448 9611 0
-7448 770 0
-9611 -770 7448 0
-7449 9611 0
-7449 784 0
-9611 -784 7449 0
-7450 9611 0
-7450 797 0
-9611 -797 7450 0
-7451 9611 0
-7451 809 0
-9611 -809 7451 0
-7452 9611 0
-7452 820 0
-9611 -820 7452 0
-7453 9611 0
-7453 830 0
-9611 -830 7453 0
-7454 9611 0
-7454 839 0
-9611 -839 7454 0
-7455 9611 0
-7455 847 0
-9611 -847 7455 0
-7456 9611 0
-7456 855 0
-9611 -855 7456 0
-7457 9611 0
-7457 856 0
-9611 -856 7457 0
-7458 9611 0
-7458 857 0
-9611 -857 7458 0
-7459 9611 0
-7459 858 0
-9611 -858 7459 0
-7460 9611 0
-7460 859 0
-9611 -859 7460 0
-7461 9611 0
-7461 860 0
-9611 -860 7461 0
-7462 9611 0
-7462 861 0
-9611 -861 7462 0
-7463 9612 0
-7463 686 0
-9612 -686 7463 0
-7464 9612 0
-7464 705 0
-9612 -705 7464 0
-7465 9612 0
-7465 723 0
-9612 -723 7465 0
-7466 9612 0
-7466 740 0
-9612 -740 7466 0
-7467 9612 0
-7467 756 0
-9612 -756 7467 0
-7468 9612 0
-7468 771 0
-9612 -771 7468 0
-7469 9612 0
-7469 785 0
-9612 -785 7469 0
-7470 9612 0
-7470 798 0
-9612 -798 7470 0
-7471 9612 0
-7471 810 0
-9612 -810 7471 0
-7472 9612 0
-7472 821 0
-9612 -821 7472 0
-7473 9612 0
-7473 831 0
-9612 -831 7473 0
-7474 9612 0
-7474 840 0
-9612 -840 7474 0
-7475 9612 0
-7475 848 0
-9612 -848 7475 0
-7476 9612 0
-7476 855 0
-9612 -855 7476 0
-7477 9612 0
-7477 862 0
-9612 -862 7477 0
-7478 9612 0
-7478 863 0
-9612 -863 7478 0
-7479 9612 0
-7479 864 0
-9612 -864 7479 0
-7480 9612 0
-7480 865 0
-9612 -865 7480 0
-7481 9612 0
-7481 866 0
-9612 -866 7481 0
-7482 9612 0
-7482 867 0
-9612 -867 7482 0
-7483 9613 0
-7483 687 0
-9613 -687 7483 0
-7484 9613 0
-7484 706 0
-9613 -706 7484 0
-7485 9613 0
-7485 724 0
-9613 -724 7485 0
-7486 9613 0
-7486 741 0
-9613 -741 7486 0
-7487 9613 0
-7487 757 0
-9613 -757 7487 0
-7488 9613 0
-7488 772 0
-9613 -772 7488 0
-7489 9613 0
-7489 786 0
-9613 -786 7489 0
-7490 9613 0
-7490 799 0
-9613 -799 7490 0
-7491 9613 0
-7491 811 0
-9613 -811 7491 0
-7492 9613 0
-7492 822 0
-9613 -822 7492 0
-7493 9613 0
-7493 832 0
-9613 -832 7493 0
-7494 9613 0
-7494 841 0
-9613 -841 7494 0
-7495 9613 0
-7495 849 0
-9613 -849 7495 0
-7496 9613 0
-7496 856 0
-9613 -856 7496 0
-7497 9613 0
-7497 862 0
-9613 -862 7497 0
-7498 9613 0
-7498 868 0
-9613 -868 7498 0
-7499 9613 0
-7499 869 0
-9613 -869 7499 0
-7500 9613 0
-7500 870 0
-9613 -870 7500 0
-7501 9613 0
-7501 871 0
-9613 -871 7501 0
-7502 9613 0
-7502 872 0
-9613 -872 7502 0
-7503 9614 0
-7503 688 0
-9614 -688 7503 0
-7504 9614 0
-7504 707 0
-9614 -707 7504 0
-7505 9614 0
-7505 725 0
-9614 -725 7505 0
-7506 9614 0
-7506 742 0
-9614 -742 7506 0
-7507 9614 0
-7507 758 0
-9614 -758 7507 0
-7508 9614 0
-7508 773 0
-9614 -773 7508 0
-7509 9614 0
-7509 787 0
-9614 -787 7509 0
-7510 9614 0
-7510 800 0
-9614 -800 7510 0
-7511 9614 0
-7511 812 0
-9614 -812 7511 0
-7512 9614 0
-7512 823 0
-9614 -823 7512 0
-7513 9614 0
-7513 833 0
-9614 -833 7513 0
-7514 9614 0
-7514 842 0
-9614 -842 7514 0
-7515 9614 0
-7515 850 0
-9614 -850 7515 0
-7516 9614 0
-7516 857 0
-9614 -857 7516 0
-7517 9614 0
-7517 863 0
-9614 -863 7517 0
-7518 9614 0
-7518 868 0
-9614 -868 7518 0
-7519 9614 0
-7519 873 0
-9614 -873 7519 0
-7520 9614 0
-7520 874 0
-9614 -874 7520 0
-7521 9614 0
-7521 875 0
-9614 -875 7521 0
-7522 9614 0
-7522 876 0
-9614 -876 7522 0
-7523 9615 0
-7523 689 0
-9615 -689 7523 0
-7524 9615 0
-7524 708 0
-9615 -708 7524 0
-7525 9615 0
-7525 726 0
-9615 -726 7525 0
-7526 9615 0
-7526 743 0
-9615 -743 7526 0
-7527 9615 0
-7527 759 0
-9615 -759 7527 0
-7528 9615 0
-7528 774 0
-9615 -774 7528 0
-7529 9615 0
-7529 788 0
-9615 -788 7529 0
-7530 9615 0
-7530 801 0
-9615 -801 7530 0
-7531 9615 0
-7531 813 0
-9615 -813 7531 0
-7532 9615 0
-7532 824 0
-9615 -824 7532 0
-7533 9615 0
-7533 834 0
-9615 -834 7533 0
-7534 9615 0
-7534 843 0
-9615 -843 7534 0
-7535 9615 0
-7535 851 0
-9615 -851 7535 0
-7536 9615 0
-7536 858 0
-9615 -858 7536 0
-7537 9615 0
-7537 864 0
-9615 -864 7537 0
-7538 9615 0
-7538 869 0
-9615 -869 7538 0
-7539 9615 0
-7539 873 0
-9615 -873 7539 0
-7540 9615 0
-7540 877 0
-9615 -877 7540 0
-7541 9615 0
-7541 878 0
-9615 -878 7541 0
-7542 9615 0
-7542 879 0
-9615 -879 7542 0
-7543 9616 0
-7543 690 0
-9616 -690 7543 0
-7544 9616 0
-7544 709 0
-9616 -709 7544 0
-7545 9616 0
-7545 727 0
-9616 -727 7545 0
-7546 9616 0
-7546 744 0
-9616 -744 7546 0
-7547 9616 0
-7547 760 0
-9616 -760 7547 0
-7548 9616 0
-7548 775 0
-9616 -775 7548 0
-7549 9616 0
-7549 789 0
-9616 -789 7549 0
-7550 9616 0
-7550 802 0
-9616 -802 7550 0
-7551 9616 0
-7551 814 0
-9616 -814 7551 0
-7552 9616 0
-7552 825 0
-9616 -825 7552 0
-7553 9616 0
-7553 835 0
-9616 -835 7553 0
-7554 9616 0
-7554 844 0
-9616 -844 7554 0
-7555 9616 0
-7555 852 0
-9616 -852 7555 0
-7556 9616 0
-7556 859 0
-9616 -859 7556 0
-7557 9616 0
-7557 865 0
-9616 -865 7557 0
-7558 9616 0
-7558 870 0
-9616 -870 7558 0
-7559 9616 0
-7559 874 0
-9616 -874 7559 0
-7560 9616 0
-7560 877 0
-9616 -877 7560 0
-7561 9616 0
-7561 880 0
-9616 -880 7561 0
-7562 9616 0
-7562 881 0
-9616 -881 7562 0
-7563 9617 0
-7563 691 0
-9617 -691 7563 0
-7564 9617 0
-7564 710 0
-9617 -710 7564 0
-7565 9617 0
-7565 728 0
-9617 -728 7565 0
-7566 9617 0
-7566 745 0
-9617 -745 7566 0
-7567 9617 0
-7567 761 0
-9617 -761 7567 0
-7568 9617 0
-7568 776 0
-9617 -776 7568 0
-7569 9617 0
-7569 790 0
-9617 -790 7569 0
-7570 9617 0
-7570 803 0
-9617 -803 7570 0
-7571 9617 0
-7571 815 0
-9617 -815 7571 0
-7572 9617 0
-7572 826 0
-9617 -826 7572 0
-7573 9617 0
-7573 836 0
-9617 -836 7573 0
-7574 9617 0
-7574 845 0
-9617 -845 7574 0
-7575 9617 0
-7575 853 0
-9617 -853 7575 0
-7576 9617 0
-7576 860 0
-9617 -860 7576 0
-7577 9617 0
-7577 866 0
-9617 -866 7577 0
-7578 9617 0
-7578 871 0
-9617 -871 7578 0
-7579 9617 0
-7579 875 0
-9617 -875 7579 0
-7580 9617 0
-7580 878 0
-9617 -878 7580 0
-7581 9617 0
-7581 880 0
-9617 -880 7581 0
-7582 9617 0
-7582 882 0
-9617 -882 7582 0
-7583 9618 0
-7583 692 0
-9618 -692 7583 0
-7584 9618 0
-7584 711 0
-9618 -711 7584 0
-7585 9618 0
-7585 729 0
-9618 -729 7585 0
-7586 9618 0
-7586 746 0
-9618 -746 7586 0
-7587 9618 0
-7587 762 0
-9618 -762 7587 0
-7588 9618 0
-7588 777 0
-9618 -777 7588 0
-7589 9618 0
-7589 791 0
-9618 -791 7589 0
-7590 9618 0
-7590 804 0
-9618 -804 7590 0
-7591 9618 0
-7591 816 0
-9618 -816 7591 0
-7592 9618 0
-7592 827 0
-9618 -827 7592 0
-7593 9618 0
-7593 837 0
-9618 -837 7593 0
-7594 9618 0
-7594 846 0
-9618 -846 7594 0
-7595 9618 0
-7595 854 0
-9618 -854 7595 0
-7596 9618 0
-7596 861 0
-9618 -861 7596 0
-7597 9618 0
-7597 867 0
-9618 -867 7597 0
-7598 9618 0
-7598 872 0
-9618 -872 7598 0
-7599 9618 0
-7599 876 0
-9618 -876 7599 0
-7600 9618 0
-7600 879 0
-9618 -879 7600 0
-7601 9618 0
-7601 881 0
-9618 -881 7601 0
-7602 9618 0
-7602 882 0
-9618 -882 7602 0
-7603 9619 0
-7603 673 0
-9619 -673 7603 0
-7604 9619 0
-7604 674 0
-9619 -674 7604 0
-7605 9619 0
-7605 675 0
-9619 -675 7605 0
-7606 9619 0
-7606 676 0
-9619 -676 7606 0
-7607 9619 0
-7607 677 0
-9619 -677 7607 0
-7608 9619 0
-7608 678 0
-9619 -678 7608 0
-7609 9619 0
-7609 679 0
-9619 -679 7609 0
-7610 9619 0
-7610 680 0
-9619 -680 7610 0
-7611 9619 0
-7611 681 0
-9619 -681 7611 0
-7612 9619 0
-7612 682 0
-9619 -682 7612 0
-7613 9619 0
-7613 683 0
-9619 -683 7613 0
-7614 9619 0
-7614 684 0
-9619 -684 7614 0
-7615 9619 0
-7615 685 0
-9619 -685 7615 0
-7616 9619 0
-7616 686 0
-9619 -686 7616 0
-7617 9619 0
-7617 687 0
-9619 -687 7617 0
-7618 9619 0
-7618 688 0
-9619 -688 7618 0
-7619 9619 0
-7619 689 0
-9619 -689 7619 0
-7620 9619 0
-7620 690 0
-9619 -690 7620 0
-7621 9619 0
-7621 691 0
-9619 -691 7621 0
-7622 9619 0
-7622 692 0
-9619 -692 7622 0
-7623 9620 0
-7623 673 0
-9620 -673 7623 0
-7624 9620 0
-7624 693 0
-9620 -693 7624 0
-7625 9620 0
-7625 694 0
-9620 -694 7625 0
-7626 9620 0
-7626 695 0
-9620 -695 7626 0
-7627 9620 0
-7627 696 0
-9620 -696 7627 0
-7628 9620 0
-7628 697 0
-9620 -697 7628 0
-7629 9620 0
-7629 698 0
-9620 -698 7629 0
-7630 9620 0
-7630 699 0
-9620 -699 7630 0
-7631 9620 0
-7631 700 0
-9620 -700 7631 0
-7632 9620 0
-7632 701 0
-9620 -701 7632 0
-7633 9620 0
-7633 702 0
-9620 -702 7633 0
-7634 9620 0
-7634 703 0
-9620 -703 7634 0
-7635 9620 0
-7635 704 0
-9620 -704 7635 0
-7636 9620 0
-7636 705 0
-9620 -705 7636 0
-7637 9620 0
-7637 706 0
-9620 -706 7637 0
-7638 9620 0
-7638 707 0
-9620 -707 7638 0
-7639 9620 0
-7639 708 0
-9620 -708 7639 0
-7640 9620 0
-7640 709 0
-9620 -709 7640 0
-7641 9620 0
-7641 710 0
-9620 -710 7641 0
-7642 9620 0
-7642 711 0
-9620 -711 7642 0
-7643 9621 0
-7643 674 0
-9621 -674 7643 0
-7644 9621 0
-7644 693 0
-9621 -693 7644 0
-7645 9621 0
-7645 712 0
-9621 -712 7645 0
-7646 9621 0
-7646 713 0
-9621 -713 7646 0
-7647 9621 0
-7647 714 0
-9621 -714 7647 0
-7648 9621 0
-7648 715 0
-9621 -715 7648 0
-7649 9621 0
-7649 716 0
-9621 -716 7649 0
-7650 9621 0
-7650 717 0
-9621 -717 7650 0
-7651 9621 0
-7651 718 0
-9621 -718 7651 0
-7652 9621 0
-7652 719 0
-9621 -719 7652 0
-7653 9621 0
-7653 720 0
-9621 -720 7653 0
-7654 9621 0
-7654 721 0
-9621 -721 7654 0
-7655 9621 0
-7655 722 0
-9621 -722 7655 0
-7656 9621 0
-7656 723 0
-9621 -723 7656 0
-7657 9621 0
-7657 724 0
-9621 -724 7657 0
-7658 9621 0
-7658 725 0
-9621 -725 7658 0
-7659 9621 0
-7659 726 0
-9621 -726 7659 0
-7660 9621 0
-7660 727 0
-9621 -727 7660 0
-7661 9621 0
-7661 728 0
-9621 -728 7661 0
-7662 9621 0
-7662 729 0
-9621 -729 7662 0
-7663 9622 0
-7663 675 0
-9622 -675 7663 0
-7664 9622 0
-7664 694 0
-9622 -694 7664 0
-7665 9622 0
-7665 712 0
-9622 -712 7665 0
-7666 9622 0
-7666 730 0
-9622 -730 7666 0
-7667 9622 0
-7667 731 0
-9622 -731 7667 0
-7668 9622 0
-7668 732 0
-9622 -732 7668 0
-7669 9622 0
-7669 733 0
-9622 -733 7669 0
-7670 9622 0
-7670 734 0
-9622 -734 7670 0
-7671 9622 0
-7671 735 0
-9622 -735 7671 0
-7672 9622 0
-7672 736 0
-9622 -736 7672 0
-7673 9622 0
-7673 737 0
-9622 -737 7673 0
-7674 9622 0
-7674 738 0
-9622 -738 7674 0
-7675 9622 0
-7675 739 0
-9622 -739 7675 0
-7676 9622 0
-7676 740 0
-9622 -740 7676 0
-7677 9622 0
-7677 741 0
-9622 -741 7677 0
-7678 9622 0
-7678 742 0
-9622 -742 7678 0
-7679 9622 0
-7679 743 0
-9622 -743 7679 0
-7680 9622 0
-7680 744 0
-9622 -744 7680 0
-7681 9622 0
-7681 745 0
-9622 -745 7681 0
-7682 9622 0
-7682 746 0
-9622 -746 7682 0
-7683 9623 0
-7683 676 0
-9623 -676 7683 0
-7684 9623 0
-7684 695 0
-9623 -695 7684 0
-7685 9623 0
-7685 713 0
-9623 -713 7685 0
-7686 9623 0
-7686 730 0
-9623 -730 7686 0
-7687 9623 0
-7687 747 0
-9623 -747 7687 0
-7688 9623 0
-7688 748 0
-9623 -748 7688 0
-7689 9623 0
-7689 749 0
-9623 -749 7689 0
-7690 9623 0
-7690 750 0
-9623 -750 7690 0
-7691 9623 0
-7691 751 0
-9623 -751 7691 0
-7692 9623 0
-7692 752 0
-9623 -752 7692 0
-7693 9623 0
-7693 753 0
-9623 -753 7693 0
-7694 9623 0
-7694 754 0
-9623 -754 7694 0
-7695 9623 0
-7695 755 0
-9623 -755 7695 0
-7696 9623 0
-7696 756 0
-9623 -756 7696 0
-7697 9623 0
-7697 757 0
-9623 -757 7697 0
-7698 9623 0
-7698 758 0
-9623 -758 7698 0
-7699 9623 0
-7699 759 0
-9623 -759 7699 0
-7700 9623 0
-7700 760 0
-9623 -760 7700 0
-7701 9623 0
-7701 761 0
-9623 -761 7701 0
-7702 9623 0
-7702 762 0
-9623 -762 7702 0
-7703 9624 0
-7703 677 0
-9624 -677 7703 0
-7704 9624 0
-7704 696 0
-9624 -696 7704 0
-7705 9624 0
-7705 714 0
-9624 -714 7705 0
-7706 9624 0
-7706 731 0
-9624 -731 7706 0
-7707 9624 0
-7707 747 0
-9624 -747 7707 0
-7708 9624 0
-7708 763 0
-9624 -763 7708 0
-7709 9624 0
-7709 764 0
-9624 -764 7709 0
-7710 9624 0
-7710 765 0
-9624 -765 7710 0
-7711 9624 0
-7711 766 0
-9624 -766 7711 0
-7712 9624 0
-7712 767 0
-9624 -767 7712 0
-7713 9624 0
-7713 768 0
-9624 -768 7713 0
-7714 9624 0
-7714 769 0
-9624 -769 7714 0
-7715 9624 0
-7715 770 0
-9624 -770 7715 0
-7716 9624 0
-7716 771 0
-9624 -771 7716 0
-7717 9624 0
-7717 772 0
-9624 -772 7717 0
-7718 9624 0
-7718 773 0
-9624 -773 7718 0
-7719 9624 0
-7719 774 0
-9624 -774 7719 0
-7720 9624 0
-7720 775 0
-9624 -775 7720 0
-7721 9624 0
-7721 776 0
-9624 -776 7721 0
-7722 9624 0
-7722 777 0
-9624 -777 7722 0
-7723 9625 0
-7723 678 0
-9625 -678 7723 0
-7724 9625 0
-7724 697 0
-9625 -697 7724 0
-7725 9625 0
-7725 715 0
-9625 -715 7725 0
-7726 9625 0
-7726 732 0
-9625 -732 7726 0
-7727 9625 0
-7727 748 0
-9625 -748 7727 0
-7728 9625 0
-7728 763 0
-9625 -763 7728 0
-7729 9625 0
-7729 778 0
-9625 -778 7729 0
-7730 9625 0
-7730 779 0
-9625 -779 7730 0
-7731 9625 0
-7731 780 0
-9625 -780 7731 0
-7732 9625 0
-7732 781 0
-9625 -781 7732 0
-7733 9625 0
-7733 782 0
-9625 -782 7733 0
-7734 9625 0
-7734 783 0
-9625 -783 7734 0
-7735 9625 0
-7735 784 0
-9625 -784 7735 0
-7736 9625 0
-7736 785 0
-9625 -785 7736 0
-7737 9625 0
-7737 786 0
-9625 -786 7737 0
-7738 9625 0
-7738 787 0
-9625 -787 7738 0
-7739 9625 0
-7739 788 0
-9625 -788 7739 0
-7740 9625 0
-7740 789 0
-9625 -789 7740 0
-7741 9625 0
-7741 790 0
-9625 -790 7741 0
-7742 9625 0
-7742 791 0
-9625 -791 7742 0
-7743 9626 0
-7743 679 0
-9626 -679 7743 0
-7744 9626 0
-7744 698 0
-9626 -698 7744 0
-7745 9626 0
-7745 716 0
-9626 -716 7745 0
-7746 9626 0
-7746 733 0
-9626 -733 7746 0
-7747 9626 0
-7747 749 0
-9626 -749 7747 0
-7748 9626 0
-7748 764 0
-9626 -764 7748 0
-7749 9626 0
-7749 778 0
-9626 -778 7749 0
-7750 9626 0
-7750 792 0
-9626 -792 7750 0
-7751 9626 0
-7751 793 0
-9626 -793 7751 0
-7752 9626 0
-7752 794 0
-9626 -794 7752 0
-7753 9626 0
-7753 795 0
-9626 -795 7753 0
-7754 9626 0
-7754 796 0
-9626 -796 7754 0
-7755 9626 0
-7755 797 0
-9626 -797 7755 0
-7756 9626 0
-7756 798 0
-9626 -798 7756 0
-7757 9626 0
-7757 799 0
-9626 -799 7757 0
-7758 9626 0
-7758 800 0
-9626 -800 7758 0
-7759 9626 0
-7759 801 0
-9626 -801 7759 0
-7760 9626 0
-7760 802 0
-9626 -802 7760 0
-7761 9626 0
-7761 803 0
-9626 -803 7761 0
-7762 9626 0
-7762 804 0
-9626 -804 7762 0
-7763 9627 0
-7763 680 0
-9627 -680 7763 0
-7764 9627 0
-7764 699 0
-9627 -699 7764 0
-7765 9627 0
-7765 717 0
-9627 -717 7765 0
-7766 9627 0
-7766 734 0
-9627 -734 7766 0
-7767 9627 0
-7767 750 0
-9627 -750 7767 0
-7768 9627 0
-7768 765 0
-9627 -765 7768 0
-7769 9627 0
-7769 779 0
-9627 -779 7769 0
-7770 9627 0
-7770 792 0
-9627 -792 7770 0
-7771 9627 0
-7771 805 0
-9627 -805 7771 0
-7772 9627 0
-7772 806 0
-9627 -806 7772 0
-7773 9627 0
-7773 807 0
-9627 -807 7773 0
-7774 9627 0
-7774 808 0
-9627 -808 7774 0
-7775 9627 0
-7775 809 0
-9627 -809 7775 0
-7776 9627 0
-7776 810 0
-9627 -810 7776 0
-7777 9627 0
-7777 811 0
-9627 -811 7777 0
-7778 9627 0
-7778 812 0
-9627 -812 7778 0
-7779 9627 0
-7779 813 0
-9627 -813 7779 0
-7780 9627 0
-7780 814 0
-9627 -814 7780 0
-7781 9627 0
-7781 815 0
-9627 -815 7781 0
-7782 9627 0
-7782 816 0
-9627 -816 7782 0
-7783 9628 0
-7783 681 0
-9628 -681 7783 0
-7784 9628 0
-7784 700 0
-9628 -700 7784 0
-7785 9628 0
-7785 718 0
-9628 -718 7785 0
-7786 9628 0
-7786 735 0
-9628 -735 7786 0
-7787 9628 0
-7787 751 0
-9628 -751 7787 0
-7788 9628 0
-7788 766 0
-9628 -766 7788 0
-7789 9628 0
-7789 780 0
-9628 -780 7789 0
-7790 9628 0
-7790 793 0
-9628 -793 7790 0
-7791 9628 0
-7791 805 0
-9628 -805 7791 0
-7792 9628 0
-7792 817 0
-9628 -817 7792 0
-7793 9628 0
-7793 818 0
-9628 -818 7793 0
-7794 9628 0
-7794 819 0
-9628 -819 7794 0
-7795 9628 0
-7795 820 0
-9628 -820 7795 0
-7796 9628 0
-7796 821 0
-9628 -821 7796 0
-7797 9628 0
-7797 822 0
-9628 -822 7797 0
-7798 9628 0
-7798 823 0
-9628 -823 7798 0
-7799 9628 0
-7799 824 0
-9628 -824 7799 0
-7800 9628 0
-7800 825 0
-9628 -825 7800 0
-7801 9628 0
-7801 826 0
-9628 -826 7801 0
-7802 9628 0
-7802 827 0
-9628 -827 7802 0
-7803 9629 0
-7803 682 0
-9629 -682 7803 0
-7804 9629 0
-7804 701 0
-9629 -701 7804 0
-7805 9629 0
-7805 719 0
-9629 -719 7805 0
-7806 9629 0
-7806 736 0
-9629 -736 7806 0
-7807 9629 0
-7807 752 0
-9629 -752 7807 0
-7808 9629 0
-7808 767 0
-9629 -767 7808 0
-7809 9629 0
-7809 781 0
-9629 -781 7809 0
-7810 9629 0
-7810 794 0
-9629 -794 7810 0
-7811 9629 0
-7811 806 0
-9629 -806 7811 0
-7812 9629 0
-7812 817 0
-9629 -817 7812 0
-7813 9629 0
-7813 828 0
-9629 -828 7813 0
-7814 9629 0
-7814 829 0
-9629 -829 7814 0
-7815 9629 0
-7815 830 0
-9629 -830 7815 0
-7816 9629 0
-7816 831 0
-9629 -831 7816 0
-7817 9629 0
-7817 832 0
-9629 -832 7817 0
-7818 9629 0
-7818 833 0
-9629 -833 7818 0
-7819 9629 0
-7819 834 0
-9629 -834 7819 0
-7820 9629 0
-7820 835 0
-9629 -835 7820 0
-7821 9629 0
-7821 836 0
-9629 -836 7821 0
-7822 9629 0
-7822 837 0
-9629 -837 7822 0
-7823 9630 0
-7823 683 0
-9630 -683 7823 0
-7824 9630 0
-7824 702 0
-9630 -702 7824 0
-7825 9630 0
-7825 720 0
-9630 -720 7825 0
-7826 9630 0
-7826 737 0
-9630 -737 7826 0
-7827 9630 0
-7827 753 0
-9630 -753 7827 0
-7828 9630 0
-7828 768 0
-9630 -768 7828 0
-7829 9630 0
-7829 782 0
-9630 -782 7829 0
-7830 9630 0
-7830 795 0
-9630 -795 7830 0
-7831 9630 0
-7831 807 0
-9630 -807 7831 0
-7832 9630 0
-7832 818 0
-9630 -818 7832 0
-7833 9630 0
-7833 828 0
-9630 -828 7833 0
-7834 9630 0
-7834 838 0
-9630 -838 7834 0
-7835 9630 0
-7835 839 0
-9630 -839 7835 0
-7836 9630 0
-7836 840 0
-9630 -840 7836 0
-7837 9630 0
-7837 841 0
-9630 -841 7837 0
-7838 9630 0
-7838 842 0
-9630 -842 7838 0
-7839 9630 0
-7839 843 0
-9630 -843 7839 0
-7840 9630 0
-7840 844 0
-9630 -844 7840 0
-7841 9630 0
-7841 845 0
-9630 -845 7841 0
-7842 9630 0
-7842 846 0
-9630 -846 7842 0
-7843 9631 0
-7843 684 0
-9631 -684 7843 0
-7844 9631 0
-7844 703 0
-9631 -703 7844 0
-7845 9631 0
-7845 721 0
-9631 -721 7845 0
-7846 9631 0
-7846 738 0
-9631 -738 7846 0
-7847 9631 0
-7847 754 0
-9631 -754 7847 0
-7848 9631 0
-7848 769 0
-9631 -769 7848 0
-7849 9631 0
-7849 783 0
-9631 -783 7849 0
-7850 9631 0
-7850 796 0
-9631 -796 7850 0
-7851 9631 0
-7851 808 0
-9631 -808 7851 0
-7852 9631 0
-7852 819 0
-9631 -819 7852 0
-7853 9631 0
-7853 829 0
-9631 -829 7853 0
-7854 9631 0
-7854 838 0
-9631 -838 7854 0
-7855 9631 0
-7855 847 0
-9631 -847 7855 0
-7856 9631 0
-7856 848 0
-9631 -848 7856 0
-7857 9631 0
-7857 849 0
-9631 -849 7857 0
-7858 9631 0
-7858 850 0
-9631 -850 7858 0
-7859 9631 0
-7859 851 0
-9631 -851 7859 0
-7860 9631 0
-7860 852 0
-9631 -852 7860 0
-7861 9631 0
-7861 853 0
-9631 -853 7861 0
-7862 9631 0
-7862 854 0
-9631 -854 7862 0
-7863 9632 0
-7863 685 0
-9632 -685 7863 0
-7864 9632 0
-7864 704 0
-9632 -704 7864 0
-7865 9632 0
-7865 722 0
-9632 -722 7865 0
-7866 9632 0
-7866 739 0
-9632 -739 7866 0
-7867 9632 0
-7867 755 0
-9632 -755 7867 0
-7868 9632 0
-7868 770 0
-9632 -770 7868 0
-7869 9632 0
-7869 784 0
-9632 -784 7869 0
-7870 9632 0
-7870 797 0
-9632 -797 7870 0
-7871 9632 0
-7871 809 0
-9632 -809 7871 0
-7872 9632 0
-7872 820 0
-9632 -820 7872 0
-7873 9632 0
-7873 830 0
-9632 -830 7873 0
-7874 9632 0
-7874 839 0
-9632 -839 7874 0
-7875 9632 0
-7875 847 0
-9632 -847 7875 0
-7876 9632 0
-7876 855 0
-9632 -855 7876 0
-7877 9632 0
-7877 856 0
-9632 -856 7877 0
-7878 9632 0
-7878 857 0
-9632 -857 7878 0
-7879 9632 0
-7879 858 0
-9632 -858 7879 0
-7880 9632 0
-7880 859 0
-9632 -859 7880 0
-7881 9632 0
-7881 860 0
-9632 -860 7881 0
-7882 9632 0
-7882 861 0
-9632 -861 7882 0
-7883 9633 0
-7883 686 0
-9633 -686 7883 0
-7884 9633 0
-7884 705 0
-9633 -705 7884 0
-7885 9633 0
-7885 723 0
-9633 -723 7885 0
-7886 9633 0
-7886 740 0
-9633 -740 7886 0
-7887 9633 0
-7887 756 0
-9633 -756 7887 0
-7888 9633 0
-7888 771 0
-9633 -771 7888 0
-7889 9633 0
-7889 785 0
-9633 -785 7889 0
-7890 9633 0
-7890 798 0
-9633 -798 7890 0
-7891 9633 0
-7891 810 0
-9633 -810 7891 0
-7892 9633 0
-7892 821 0
-9633 -821 7892 0
-7893 9633 0
-7893 831 0
-9633 -831 7893 0
-7894 9633 0
-7894 840 0
-9633 -840 7894 0
-7895 9633 0
-7895 848 0
-9633 -848 7895 0
-7896 9633 0
-7896 855 0
-9633 -855 7896 0
-7897 9633 0
-7897 862 0
-9633 -862 7897 0
-7898 9633 0
-7898 863 0
-9633 -863 7898 0
-7899 9633 0
-7899 864 0
-9633 -864 7899 0
-7900 9633 0
-7900 865 0
-9633 -865 7900 0
-7901 9633 0
-7901 866 0
-9633 -866 7901 0
-7902 9633 0
-7902 867 0
-9633 -867 7902 0
-7903 9634 0
-7903 687 0
-9634 -687 7903 0
-7904 9634 0
-7904 706 0
-9634 -706 7904 0
-7905 9634 0
-7905 724 0
-9634 -724 7905 0
-7906 9634 0
-7906 741 0
-9634 -741 7906 0
-7907 9634 0
-7907 757 0
-9634 -757 7907 0
-7908 9634 0
-7908 772 0
-9634 -772 7908 0
-7909 9634 0
-7909 786 0
-9634 -786 7909 0
-7910 9634 0
-7910 799 0
-9634 -799 7910 0
-7911 9634 0
-7911 811 0
-9634 -811 7911 0
-7912 9634 0
-7912 822 0
-9634 -822 7912 0
-7913 9634 0
-7913 832 0
-9634 -832 7913 0
-7914 9634 0
-7914 841 0
-9634 -841 7914 0
-7915 9634 0
-7915 849 0
-9634 -849 7915 0
-7916 9634 0
-7916 856 0
-9634 -856 7916 0
-7917 9634 0
-7917 862 0
-9634 -862 7917 0
-7918 9634 0
-7918 868 0
-9634 -868 7918 0
-7919 9634 0
-7919 869 0
-9634 -869 7919 0
-7920 9634 0
-7920 870 0
-9634 -870 7920 0
-7921 9634 0
-7921 871 0
-9634 -871 7921 0
-7922 9634 0
-7922 872 0
-9634 -872 7922 0
-7923 9635 0
-7923 688 0
-9635 -688 7923 0
-7924 9635 0
-7924 707 0
-9635 -707 7924 0
-7925 9635 0
-7925 725 0
-9635 -725 7925 0
-7926 9635 0
-7926 742 0
-9635 -742 7926 0
-7927 9635 0
-7927 758 0
-9635 -758 7927 0
-7928 9635 0
-7928 773 0
-9635 -773 7928 0
-7929 9635 0
-7929 787 0
-9635 -787 7929 0
-7930 9635 0
-7930 800 0
-9635 -800 7930 0
-7931 9635 0
-7931 812 0
-9635 -812 7931 0
-7932 9635 0
-7932 823 0
-9635 -823 7932 0
-7933 9635 0
-7933 833 0
-9635 -833 7933 0
-7934 9635 0
-7934 842 0
-9635 -842 7934 0
-7935 9635 0
-7935 850 0
-9635 -850 7935 0
-7936 9635 0
-7936 857 0
-9635 -857 7936 0
-7937 9635 0
-7937 863 0
-9635 -863 7937 0
-7938 9635 0
-7938 868 0
-9635 -868 7938 0
-7939 9635 0
-7939 873 0
-9635 -873 7939 0
-7940 9635 0
-7940 874 0
-9635 -874 7940 0
-7941 9635 0
-7941 875 0
-9635 -875 7941 0
-7942 9635 0
-7942 876 0
-9635 -876 7942 0
-7943 9636 0
-7943 689 0
-9636 -689 7943 0
-7944 9636 0
-7944 708 0
-9636 -708 7944 0
-7945 9636 0
-7945 726 0
-9636 -726 7945 0
-7946 9636 0
-7946 743 0
-9636 -743 7946 0
-7947 9636 0
-7947 759 0
-9636 -759 7947 0
-7948 9636 0
-7948 774 0
-9636 -774 7948 0
-7949 9636 0
-7949 788 0
-9636 -788 7949 0
-7950 9636 0
-7950 801 0
-9636 -801 7950 0
-7951 9636 0
-7951 813 0
-9636 -813 7951 0
-7952 9636 0
-7952 824 0
-9636 -824 7952 0
-7953 9636 0
-7953 834 0
-9636 -834 7953 0
-7954 9636 0
-7954 843 0
-9636 -843 7954 0
-7955 9636 0
-7955 851 0
-9636 -851 7955 0
-7956 9636 0
-7956 858 0
-9636 -858 7956 0
-7957 9636 0
-7957 864 0
-9636 -864 7957 0
-7958 9636 0
-7958 869 0
-9636 -869 7958 0
-7959 9636 0
-7959 873 0
-9636 -873 7959 0
-7960 9636 0
-7960 877 0
-9636 -877 7960 0
-7961 9636 0
-7961 878 0
-9636 -878 7961 0
-7962 9636 0
-7962 879 0
-9636 -879 7962 0
-7963 9637 0
-7963 690 0
-9637 -690 7963 0
-7964 9637 0
-7964 709 0
-9637 -709 7964 0
-7965 9637 0
-7965 727 0
-9637 -727 7965 0
-7966 9637 0
-7966 744 0
-9637 -744 7966 0
-7967 9637 0
-7967 760 0
-9637 -760 7967 0
-7968 9637 0
-7968 775 0
-9637 -775 7968 0
-7969 9637 0
-7969 789 0
-9637 -789 7969 0
-7970 9637 0
-7970 802 0
-9637 -802 7970 0
-7971 9637 0
-7971 814 0
-9637 -814 7971 0
-7972 9637 0
-7972 825 0
-9637 -825 7972 0
-7973 9637 0
-7973 835 0
-9637 -835 7973 0
-7974 9637 0
-7974 844 0
-9637 -844 7974 0
-7975 9637 0
-7975 852 0
-9637 -852 7975 0
-7976 9637 0
-7976 859 0
-9637 -859 7976 0
-7977 9637 0
-7977 865 0
-9637 -865 7977 0
-7978 9637 0
-7978 870 0
-9637 -870 7978 0
-7979 9637 0
-7979 874 0
-9637 -874 7979 0
-7980 9637 0
-7980 877 0
-9637 -877 7980 0
-7981 9637 0
-7981 880 0
-9637 -880 7981 0
-7982 9637 0
-7982 881 0
-9637 -881 7982 0
-7983 9638 0
-7983 691 0
-9638 -691 7983 0
-7984 9638 0
-7984 710 0
-9638 -710 7984 0
-7985 9638 0
-7985 728 0
-9638 -728 7985 0
-7986 9638 0
-7986 745 0
-9638 -745 7986 0
-7987 9638 0
-7987 761 0
-9638 -761 7987 0
-7988 9638 0
-7988 776 0
-9638 -776 7988 0
-7989 9638 0
-7989 790 0
-9638 -790 7989 0
-7990 9638 0
-7990 803 0
-9638 -803 7990 0
-7991 9638 0
-7991 815 0
-9638 -815 7991 0
-7992 9638 0
-7992 826 0
-9638 -826 7992 0
-7993 9638 0
-7993 836 0
-9638 -836 7993 0
-7994 9638 0
-7994 845 0
-9638 -845 7994 0
-7995 9638 0
-7995 853 0
-9638 -853 7995 0
-7996 9638 0
-7996 860 0
-9638 -860 7996 0
-7997 9638 0
-7997 866 0
-9638 -866 7997 0
-7998 9638 0
-7998 871 0
-9638 -871 7998 0
-7999 9638 0
-7999 875 0
-9638 -875 7999 0
-8000 9638 0
-8000 878 0
-9638 -878 8000 0
-8001 9638 0
-8001 880 0
-9638 -880 8001 0
-8002 9638 0
-8002 882 0
-9638 -882 8002 0
-8003 9639 0
-8003 692 0
-9639 -692 8003 0
-8004 9639 0
-8004 711 0
-9639 -711 8004 0
-8005 9639 0
-8005 729 0
-9639 -729 8005 0
-8006 9639 0
-8006 746 0
-9639 -746 8006 0
-8007 9639 0
-8007 762 0
-9639 -762 8007 0
-8008 9639 0
-8008 777 0
-9639 -777 8008 0
-8009 9639 0
-8009 791 0
-9639 -791 8009 0
-8010 9639 0
-8010 804 0
-9639 -804 8010 0
-8011 9639 0
-8011 816 0
-9639 -816 8011 0
-8012 9639 0
-8012 827 0
-9639 -827 8012 0
-8013 9639 0
-8013 837 0
-9639 -837 8013 0
-8014 9639 0
-8014 846 0
-9639 -846 8014 0
-8015 9639 0
-8015 854 0
-9639 -854 8015 0
-8016 9639 0
-8016 861 0
-9639 -861 8016 0
-8017 9639 0
-8017 867 0
-9639 -867 8017 0
-8018 9639 0
-8018 872 0
-9639 -872 8018 0
-8019 9639 0
-8019 876 0
-9639 -876 8019 0
-8020 9639 0
-8020 879 0
-9639 -879 8020 0
-8021 9639 0
-8021 881 0
-9639 -881 8021 0
-8022 9639 0
-8022 882 0
-9639 -882 8022 0
-8023 9640 0
-8023 673 0
-9640 -673 8023 0
-8024 9640 0
-8024 674 0
-9640 -674 8024 0
-8025 9640 0
-8025 675 0
-9640 -675 8025 0
-8026 9640 0
-8026 676 0
-9640 -676 8026 0
-8027 9640 0
-8027 677 0
-9640 -677 8027 0
-8028 9640 0
-8028 678 0
-9640 -678 8028 0
-8029 9640 0
-8029 679 0
-9640 -679 8029 0
-8030 9640 0
-8030 680 0
-9640 -680 8030 0
-8031 9640 0
-8031 681 0
-9640 -681 8031 0
-8032 9640 0
-8032 682 0
-9640 -682 8032 0
-8033 9640 0
-8033 683 0
-9640 -683 8033 0
-8034 9640 0
-8034 684 0
-9640 -684 8034 0
-8035 9640 0
-8035 685 0
-9640 -685 8035 0
-8036 9640 0
-8036 686 0
-9640 -686 8036 0
-8037 9640 0
-8037 687 0
-9640 -687 8037 0
-8038 9640 0
-8038 688 0
-9640 -688 8038 0
-8039 9640 0
-8039 689 0
-9640 -689 8039 0
-8040 9640 0
-8040 690 0
-9640 -690 8040 0
-8041 9640 0
-8041 691 0
-9640 -691 8041 0
-8042 9640 0
-8042 692 0
-9640 -692 8042 0
-8043 9641 0
-8043 673 0
-9641 -673 8043 0
-8044 9641 0
-8044 693 0
-9641 -693 8044 0
-8045 9641 0
-8045 694 0
-9641 -694 8045 0
-8046 9641 0
-8046 695 0
-9641 -695 8046 0
-8047 9641 0
-8047 696 0
-9641 -696 8047 0
-8048 9641 0
-8048 697 0
-9641 -697 8048 0
-8049 9641 0
-8049 698 0
-9641 -698 8049 0
-8050 9641 0
-8050 699 0
-9641 -699 8050 0
-8051 9641 0
-8051 700 0
-9641 -700 8051 0
-8052 9641 0
-8052 701 0
-9641 -701 8052 0
-8053 9641 0
-8053 702 0
-9641 -702 8053 0
-8054 9641 0
-8054 703 0
-9641 -703 8054 0
-8055 9641 0
-8055 704 0
-9641 -704 8055 0
-8056 9641 0
-8056 705 0
-9641 -705 8056 0
-8057 9641 0
-8057 706 0
-9641 -706 8057 0
-8058 9641 0
-8058 707 0
-9641 -707 8058 0
-8059 9641 0
-8059 708 0
-9641 -708 8059 0
-8060 9641 0
-8060 709 0
-9641 -709 8060 0
-8061 9641 0
-8061 710 0
-9641 -710 8061 0
-8062 9641 0
-8062 711 0
-9641 -711 8062 0
-8063 9642 0
-8063 674 0
-9642 -674 8063 0
-8064 9642 0
-8064 693 0
-9642 -693 8064 0
-8065 9642 0
-8065 712 0
-9642 -712 8065 0
-8066 9642 0
-8066 713 0
-9642 -713 8066 0
-8067 9642 0
-8067 714 0
-9642 -714 8067 0
-8068 9642 0
-8068 715 0
-9642 -715 8068 0
-8069 9642 0
-8069 716 0
-9642 -716 8069 0
-8070 9642 0
-8070 717 0
-9642 -717 8070 0
-8071 9642 0
-8071 718 0
-9642 -718 8071 0
-8072 9642 0
-8072 719 0
-9642 -719 8072 0
-8073 9642 0
-8073 720 0
-9642 -720 8073 0
-8074 9642 0
-8074 721 0
-9642 -721 8074 0
-8075 9642 0
-8075 722 0
-9642 -722 8075 0
-8076 9642 0
-8076 723 0
-9642 -723 8076 0
-8077 9642 0
-8077 724 0
-9642 -724 8077 0
-8078 9642 0
-8078 725 0
-9642 -725 8078 0
-8079 9642 0
-8079 726 0
-9642 -726 8079 0
-8080 9642 0
-8080 727 0
-9642 -727 8080 0
-8081 9642 0
-8081 728 0
-9642 -728 8081 0
-8082 9642 0
-8082 729 0
-9642 -729 8082 0
-8083 9643 0
-8083 675 0
-9643 -675 8083 0
-8084 9643 0
-8084 694 0
-9643 -694 8084 0
-8085 9643 0
-8085 712 0
-9643 -712 8085 0
-8086 9643 0
-8086 730 0
-9643 -730 8086 0
-8087 9643 0
-8087 731 0
-9643 -731 8087 0
-8088 9643 0
-8088 732 0
-9643 -732 8088 0
-8089 9643 0
-8089 733 0
-9643 -733 8089 0
-8090 9643 0
-8090 734 0
-9643 -734 8090 0
-8091 9643 0
-8091 735 0
-9643 -735 8091 0
-8092 9643 0
-8092 736 0
-9643 -736 8092 0
-8093 9643 0
-8093 737 0
-9643 -737 8093 0
-8094 9643 0
-8094 738 0
-9643 -738 8094 0
-8095 9643 0
-8095 739 0
-9643 -739 8095 0
-8096 9643 0
-8096 740 0
-9643 -740 8096 0
-8097 9643 0
-8097 741 0
-9643 -741 8097 0
-8098 9643 0
-8098 742 0
-9643 -742 8098 0
-8099 9643 0
-8099 743 0
-9643 -743 8099 0
-8100 9643 0
-8100 744 0
-9643 -744 8100 0
-8101 9643 0
-8101 745 0
-9643 -745 8101 0
-8102 9643 0
-8102 746 0
-9643 -746 8102 0
-8103 9644 0
-8103 676 0
-9644 -676 8103 0
-8104 9644 0
-8104 695 0
-9644 -695 8104 0
-8105 9644 0
-8105 713 0
-9644 -713 8105 0
-8106 9644 0
-8106 730 0
-9644 -730 8106 0
-8107 9644 0
-8107 747 0
-9644 -747 8107 0
-8108 9644 0
-8108 748 0
-9644 -748 8108 0
-8109 9644 0
-8109 749 0
-9644 -749 8109 0
-8110 9644 0
-8110 750 0
-9644 -750 8110 0
-8111 9644 0
-8111 751 0
-9644 -751 8111 0
-8112 9644 0
-8112 752 0
-9644 -752 8112 0
-8113 9644 0
-8113 753 0
-9644 -753 8113 0
-8114 9644 0
-8114 754 0
-9644 -754 8114 0
-8115 9644 0
-8115 755 0
-9644 -755 8115 0
-8116 9644 0
-8116 756 0
-9644 -756 8116 0
-8117 9644 0
-8117 757 0
-9644 -757 8117 0
-8118 9644 0
-8118 758 0
-9644 -758 8118 0
-8119 9644 0
-8119 759 0
-9644 -759 8119 0
-8120 9644 0
-8120 760 0
-9644 -760 8120 0
-8121 9644 0
-8121 761 0
-9644 -761 8121 0
-8122 9644 0
-8122 762 0
-9644 -762 8122 0
-8123 9645 0
-8123 677 0
-9645 -677 8123 0
-8124 9645 0
-8124 696 0
-9645 -696 8124 0
-8125 9645 0
-8125 714 0
-9645 -714 8125 0
-8126 9645 0
-8126 731 0
-9645 -731 8126 0
-8127 9645 0
-8127 747 0
-9645 -747 8127 0
-8128 9645 0
-8128 763 0
-9645 -763 8128 0
-8129 9645 0
-8129 764 0
-9645 -764 8129 0
-8130 9645 0
-8130 765 0
-9645 -765 8130 0
-8131 9645 0
-8131 766 0
-9645 -766 8131 0
-8132 9645 0
-8132 767 0
-9645 -767 8132 0
-8133 9645 0
-8133 768 0
-9645 -768 8133 0
-8134 9645 0
-8134 769 0
-9645 -769 8134 0
-8135 9645 0
-8135 770 0
-9645 -770 8135 0
-8136 9645 0
-8136 771 0
-9645 -771 8136 0
-8137 9645 0
-8137 772 0
-9645 -772 8137 0
-8138 9645 0
-8138 773 0
-9645 -773 8138 0
-8139 9645 0
-8139 774 0
-9645 -774 8139 0
-8140 9645 0
-8140 775 0
-9645 -775 8140 0
-8141 9645 0
-8141 776 0
-9645 -776 8141 0
-8142 9645 0
-8142 777 0
-9645 -777 8142 0
-8143 9646 0
-8143 678 0
-9646 -678 8143 0
-8144 9646 0
-8144 697 0
-9646 -697 8144 0
-8145 9646 0
-8145 715 0
-9646 -715 8145 0
-8146 9646 0
-8146 732 0
-9646 -732 8146 0
-8147 9646 0
-8147 748 0
-9646 -748 8147 0
-8148 9646 0
-8148 763 0
-9646 -763 8148 0
-8149 9646 0
-8149 778 0
-9646 -778 8149 0
-8150 9646 0
-8150 779 0
-9646 -779 8150 0
-8151 9646 0
-8151 780 0
-9646 -780 8151 0
-8152 9646 0
-8152 781 0
-9646 -781 8152 0
-8153 9646 0
-8153 782 0
-9646 -782 8153 0
-8154 9646 0
-8154 783 0
-9646 -783 8154 0
-8155 9646 0
-8155 784 0
-9646 -784 8155 0
-8156 9646 0
-8156 785 0
-9646 -785 8156 0
-8157 9646 0
-8157 786 0
-9646 -786 8157 0
-8158 9646 0
-8158 787 0
-9646 -787 8158 0
-8159 9646 0
-8159 788 0
-9646 -788 8159 0
-8160 9646 0
-8160 789 0
-9646 -789 8160 0
-8161 9646 0
-8161 790 0
-9646 -790 8161 0
-8162 9646 0
-8162 791 0
-9646 -791 8162 0
-8163 9647 0
-8163 679 0
-9647 -679 8163 0
-8164 9647 0
-8164 698 0
-9647 -698 8164 0
-8165 9647 0
-8165 716 0
-9647 -716 8165 0
-8166 9647 0
-8166 733 0
-9647 -733 8166 0
-8167 9647 0
-8167 749 0
-9647 -749 8167 0
-8168 9647 0
-8168 764 0
-9647 -764 8168 0
-8169 9647 0
-8169 778 0
-9647 -778 8169 0
-8170 9647 0
-8170 792 0
-9647 -792 8170 0
-8171 9647 0
-8171 793 0
-9647 -793 8171 0
-8172 9647 0
-8172 794 0
-9647 -794 8172 0
-8173 9647 0
-8173 795 0
-9647 -795 8173 0
-8174 9647 0
-8174 796 0
-9647 -796 8174 0
-8175 9647 0
-8175 797 0
-9647 -797 8175 0
-8176 9647 0
-8176 798 0
-9647 -798 8176 0
-8177 9647 0
-8177 799 0
-9647 -799 8177 0
-8178 9647 0
-8178 800 0
-9647 -800 8178 0
-8179 9647 0
-8179 801 0
-9647 -801 8179 0
-8180 9647 0
-8180 802 0
-9647 -802 8180 0
-8181 9647 0
-8181 803 0
-9647 -803 8181 0
-8182 9647 0
-8182 804 0
-9647 -804 8182 0
-8183 9648 0
-8183 680 0
-9648 -680 8183 0
-8184 9648 0
-8184 699 0
-9648 -699 8184 0
-8185 9648 0
-8185 717 0
-9648 -717 8185 0
-8186 9648 0
-8186 734 0
-9648 -734 8186 0
-8187 9648 0
-8187 750 0
-9648 -750 8187 0
-8188 9648 0
-8188 765 0
-9648 -765 8188 0
-8189 9648 0
-8189 779 0
-9648 -779 8189 0
-8190 9648 0
-8190 792 0
-9648 -792 8190 0
-8191 9648 0
-8191 805 0
-9648 -805 8191 0
-8192 9648 0
-8192 806 0
-9648 -806 8192 0
-8193 9648 0
-8193 807 0
-9648 -807 8193 0
-8194 9648 0
-8194 808 0
-9648 -808 8194 0
-8195 9648 0
-8195 809 0
-9648 -809 8195 0
-8196 9648 0
-8196 810 0
-9648 -810 8196 0
-8197 9648 0
-8197 811 0
-9648 -811 8197 0
-8198 9648 0
-8198 812 0
-9648 -812 8198 0
-8199 9648 0
-8199 813 0
-9648 -813 8199 0
-8200 9648 0
-8200 814 0
-9648 -814 8200 0
-8201 9648 0
-8201 815 0
-9648 -815 8201 0
-8202 9648 0
-8202 816 0
-9648 -816 8202 0
-8203 9649 0
-8203 681 0
-9649 -681 8203 0
-8204 9649 0
-8204 700 0
-9649 -700 8204 0
-8205 9649 0
-8205 718 0
-9649 -718 8205 0
-8206 9649 0
-8206 735 0
-9649 -735 8206 0
-8207 9649 0
-8207 751 0
-9649 -751 8207 0
-8208 9649 0
-8208 766 0
-9649 -766 8208 0
-8209 9649 0
-8209 780 0
-9649 -780 8209 0
-8210 9649 0
-8210 793 0
-9649 -793 8210 0
-8211 9649 0
-8211 805 0
-9649 -805 8211 0
-8212 9649 0
-8212 817 0
-9649 -817 8212 0
-8213 9649 0
-8213 818 0
-9649 -818 8213 0
-8214 9649 0
-8214 819 0
-9649 -819 8214 0
-8215 9649 0
-8215 820 0
-9649 -820 8215 0
-8216 9649 0
-8216 821 0
-9649 -821 8216 0
-8217 9649 0
-8217 822 0
-9649 -822 8217 0
-8218 9649 0
-8218 823 0
-9649 -823 8218 0
-8219 9649 0
-8219 824 0
-9649 -824 8219 0
-8220 9649 0
-8220 825 0
-9649 -825 8220 0
-8221 9649 0
-8221 826 0
-9649 -826 8221 0
-8222 9649 0
-8222 827 0
-9649 -827 8222 0
-8223 9650 0
-8223 682 0
-9650 -682 8223 0
-8224 9650 0
-8224 701 0
-9650 -701 8224 0
-8225 9650 0
-8225 719 0
-9650 -719 8225 0
-8226 9650 0
-8226 736 0
-9650 -736 8226 0
-8227 9650 0
-8227 752 0
-9650 -752 8227 0
-8228 9650 0
-8228 767 0
-9650 -767 8228 0
-8229 9650 0
-8229 781 0
-9650 -781 8229 0
-8230 9650 0
-8230 794 0
-9650 -794 8230 0
-8231 9650 0
-8231 806 0
-9650 -806 8231 0
-8232 9650 0
-8232 817 0
-9650 -817 8232 0
-8233 9650 0
-8233 828 0
-9650 -828 8233 0
-8234 9650 0
-8234 829 0
-9650 -829 8234 0
-8235 9650 0
-8235 830 0
-9650 -830 8235 0
-8236 9650 0
-8236 831 0
-9650 -831 8236 0
-8237 9650 0
-8237 832 0
-9650 -832 8237 0
-8238 9650 0
-8238 833 0
-9650 -833 8238 0
-8239 9650 0
-8239 834 0
-9650 -834 8239 0
-8240 9650 0
-8240 835 0
-9650 -835 8240 0
-8241 9650 0
-8241 836 0
-9650 -836 8241 0
-8242 9650 0
-8242 837 0
-9650 -837 8242 0
-8243 9651 0
-8243 683 0
-9651 -683 8243 0
-8244 9651 0
-8244 702 0
-9651 -702 8244 0
-8245 9651 0
-8245 720 0
-9651 -720 8245 0
-8246 9651 0
-8246 737 0
-9651 -737 8246 0
-8247 9651 0
-8247 753 0
-9651 -753 8247 0
-8248 9651 0
-8248 768 0
-9651 -768 8248 0
-8249 9651 0
-8249 782 0
-9651 -782 8249 0
-8250 9651 0
-8250 795 0
-9651 -795 8250 0
-8251 9651 0
-8251 807 0
-9651 -807 8251 0
-8252 9651 0
-8252 818 0
-9651 -818 8252 0
-8253 9651 0
-8253 828 0
-9651 -828 8253 0
-8254 9651 0
-8254 838 0
-9651 -838 8254 0
-8255 9651 0
-8255 839 0
-9651 -839 8255 0
-8256 9651 0
-8256 840 0
-9651 -840 8256 0
-8257 9651 0
-8257 841 0
-9651 -841 8257 0
-8258 9651 0
-8258 842 0
-9651 -842 8258 0
-8259 9651 0
-8259 843 0
-9651 -843 8259 0
-8260 9651 0
-8260 844 0
-9651 -844 8260 0
-8261 9651 0
-8261 845 0
-9651 -845 8261 0
-8262 9651 0
-8262 846 0
-9651 -846 8262 0
-8263 9652 0
-8263 684 0
-9652 -684 8263 0
-8264 9652 0
-8264 703 0
-9652 -703 8264 0
-8265 9652 0
-8265 721 0
-9652 -721 8265 0
-8266 9652 0
-8266 738 0
-9652 -738 8266 0
-8267 9652 0
-8267 754 0
-9652 -754 8267 0
-8268 9652 0
-8268 769 0
-9652 -769 8268 0
-8269 9652 0
-8269 783 0
-9652 -783 8269 0
-8270 9652 0
-8270 796 0
-9652 -796 8270 0
-8271 9652 0
-8271 808 0
-9652 -808 8271 0
-8272 9652 0
-8272 819 0
-9652 -819 8272 0
-8273 9652 0
-8273 829 0
-9652 -829 8273 0
-8274 9652 0
-8274 838 0
-9652 -838 8274 0
-8275 9652 0
-8275 847 0
-9652 -847 8275 0
-8276 9652 0
-8276 848 0
-9652 -848 8276 0
-8277 9652 0
-8277 849 0
-9652 -849 8277 0
-8278 9652 0
-8278 850 0
-9652 -850 8278 0
-8279 9652 0
-8279 851 0
-9652 -851 8279 0
-8280 9652 0
-8280 852 0
-9652 -852 8280 0
-8281 9652 0
-8281 853 0
-9652 -853 8281 0
-8282 9652 0
-8282 854 0
-9652 -854 8282 0
-8283 9653 0
-8283 685 0
-9653 -685 8283 0
-8284 9653 0
-8284 704 0
-9653 -704 8284 0
-8285 9653 0
-8285 722 0
-9653 -722 8285 0
-8286 9653 0
-8286 739 0
-9653 -739 8286 0
-8287 9653 0
-8287 755 0
-9653 -755 8287 0
-8288 9653 0
-8288 770 0
-9653 -770 8288 0
-8289 9653 0
-8289 784 0
-9653 -784 8289 0
-8290 9653 0
-8290 797 0
-9653 -797 8290 0
-8291 9653 0
-8291 809 0
-9653 -809 8291 0
-8292 9653 0
-8292 820 0
-9653 -820 8292 0
-8293 9653 0
-8293 830 0
-9653 -830 8293 0
-8294 9653 0
-8294 839 0
-9653 -839 8294 0
-8295 9653 0
-8295 847 0
-9653 -847 8295 0
-8296 9653 0
-8296 855 0
-9653 -855 8296 0
-8297 9653 0
-8297 856 0
-9653 -856 8297 0
-8298 9653 0
-8298 857 0
-9653 -857 8298 0
-8299 9653 0
-8299 858 0
-9653 -858 8299 0
-8300 9653 0
-8300 859 0
-9653 -859 8300 0
-8301 9653 0
-8301 860 0
-9653 -860 8301 0
-8302 9653 0
-8302 861 0
-9653 -861 8302 0
-8303 9654 0
-8303 686 0
-9654 -686 8303 0
-8304 9654 0
-8304 705 0
-9654 -705 8304 0
-8305 9654 0
-8305 723 0
-9654 -723 8305 0
-8306 9654 0
-8306 740 0
-9654 -740 8306 0
-8307 9654 0
-8307 756 0
-9654 -756 8307 0
-8308 9654 0
-8308 771 0
-9654 -771 8308 0
-8309 9654 0
-8309 785 0
-9654 -785 8309 0
-8310 9654 0
-8310 798 0
-9654 -798 8310 0
-8311 9654 0
-8311 810 0
-9654 -810 8311 0
-8312 9654 0
-8312 821 0
-9654 -821 8312 0
-8313 9654 0
-8313 831 0
-9654 -831 8313 0
-8314 9654 0
-8314 840 0
-9654 -840 8314 0
-8315 9654 0
-8315 848 0
-9654 -848 8315 0
-8316 9654 0
-8316 855 0
-9654 -855 8316 0
-8317 9654 0
-8317 862 0
-9654 -862 8317 0
-8318 9654 0
-8318 863 0
-9654 -863 8318 0
-8319 9654 0
-8319 864 0
-9654 -864 8319 0
-8320 9654 0
-8320 865 0
-9654 -865 8320 0
-8321 9654 0
-8321 866 0
-9654 -866 8321 0
-8322 9654 0
-8322 867 0
-9654 -867 8322 0
-8323 9655 0
-8323 687 0
-9655 -687 8323 0
-8324 9655 0
-8324 706 0
-9655 -706 8324 0
-8325 9655 0
-8325 724 0
-9655 -724 8325 0
-8326 9655 0
-8326 741 0
-9655 -741 8326 0
-8327 9655 0
-8327 757 0
-9655 -757 8327 0
-8328 9655 0
-8328 772 0
-9655 -772 8328 0
-8329 9655 0
-8329 786 0
-9655 -786 8329 0
-8330 9655 0
-8330 799 0
-9655 -799 8330 0
-8331 9655 0
-8331 811 0
-9655 -811 8331 0
-8332 9655 0
-8332 822 0
-9655 -822 8332 0
-8333 9655 0
-8333 832 0
-9655 -832 8333 0
-8334 9655 0
-8334 841 0
-9655 -841 8334 0
-8335 9655 0
-8335 849 0
-9655 -849 8335 0
-8336 9655 0
-8336 856 0
-9655 -856 8336 0
-8337 9655 0
-8337 862 0
-9655 -862 8337 0
-8338 9655 0
-8338 868 0
-9655 -868 8338 0
-8339 9655 0
-8339 869 0
-9655 -869 8339 0
-8340 9655 0
-8340 870 0
-9655 -870 8340 0
-8341 9655 0
-8341 871 0
-9655 -871 8341 0
-8342 9655 0
-8342 872 0
-9655 -872 8342 0
-8343 9656 0
-8343 688 0
-9656 -688 8343 0
-8344 9656 0
-8344 707 0
-9656 -707 8344 0
-8345 9656 0
-8345 725 0
-9656 -725 8345 0
-8346 9656 0
-8346 742 0
-9656 -742 8346 0
-8347 9656 0
-8347 758 0
-9656 -758 8347 0
-8348 9656 0
-8348 773 0
-9656 -773 8348 0
-8349 9656 0
-8349 787 0
-9656 -787 8349 0
-8350 9656 0
-8350 800 0
-9656 -800 8350 0
-8351 9656 0
-8351 812 0
-9656 -812 8351 0
-8352 9656 0
-8352 823 0
-9656 -823 8352 0
-8353 9656 0
-8353 833 0
-9656 -833 8353 0
-8354 9656 0
-8354 842 0
-9656 -842 8354 0
-8355 9656 0
-8355 850 0
-9656 -850 8355 0
-8356 9656 0
-8356 857 0
-9656 -857 8356 0
-8357 9656 0
-8357 863 0
-9656 -863 8357 0
-8358 9656 0
-8358 868 0
-9656 -868 8358 0
-8359 9656 0
-8359 873 0
-9656 -873 8359 0
-8360 9656 0
-8360 874 0
-9656 -874 8360 0
-8361 9656 0
-8361 875 0
-9656 -875 8361 0
-8362 9656 0
-8362 876 0
-9656 -876 8362 0
-8363 9657 0
-8363 689 0
-9657 -689 8363 0
-8364 9657 0
-8364 708 0
-9657 -708 8364 0
-8365 9657 0
-8365 726 0
-9657 -726 8365 0
-8366 9657 0
-8366 743 0
-9657 -743 8366 0
-8367 9657 0
-8367 759 0
-9657 -759 8367 0
-8368 9657 0
-8368 774 0
-9657 -774 8368 0
-8369 9657 0
-8369 788 0
-9657 -788 8369 0
-8370 9657 0
-8370 801 0
-9657 -801 8370 0
-8371 9657 0
-8371 813 0
-9657 -813 8371 0
-8372 9657 0
-8372 824 0
-9657 -824 8372 0
-8373 9657 0
-8373 834 0
-9657 -834 8373 0
-8374 9657 0
-8374 843 0
-9657 -843 8374 0
-8375 9657 0
-8375 851 0
-9657 -851 8375 0
-8376 9657 0
-8376 858 0
-9657 -858 8376 0
-8377 9657 0
-8377 864 0
-9657 -864 8377 0
-8378 9657 0
-8378 869 0
-9657 -869 8378 0
-8379 9657 0
-8379 873 0
-9657 -873 8379 0
-8380 9657 0
-8380 877 0
-9657 -877 8380 0
-8381 9657 0
-8381 878 0
-9657 -878 8381 0
-8382 9657 0
-8382 879 0
-9657 -879 8382 0
-8383 9658 0
-8383 690 0
-9658 -690 8383 0
-8384 9658 0
-8384 709 0
-9658 -709 8384 0
-8385 9658 0
-8385 727 0
-9658 -727 8385 0
-8386 9658 0
-8386 744 0
-9658 -744 8386 0
-8387 9658 0
-8387 760 0
-9658 -760 8387 0
-8388 9658 0
-8388 775 0
-9658 -775 8388 0
-8389 9658 0
-8389 789 0
-9658 -789 8389 0
-8390 9658 0
-8390 802 0
-9658 -802 8390 0
-8391 9658 0
-8391 814 0
-9658 -814 8391 0
-8392 9658 0
-8392 825 0
-9658 -825 8392 0
-8393 9658 0
-8393 835 0
-9658 -835 8393 0
-8394 9658 0
-8394 844 0
-9658 -844 8394 0
-8395 9658 0
-8395 852 0
-9658 -852 8395 0
-8396 9658 0
-8396 859 0
-9658 -859 8396 0
-8397 9658 0
-8397 865 0
-9658 -865 8397 0
-8398 9658 0
-8398 870 0
-9658 -870 8398 0
-8399 9658 0
-8399 874 0
-9658 -874 8399 0
-8400 9658 0
-8400 877 0
-9658 -877 8400 0
-8401 9658 0
-8401 880 0
-9658 -880 8401 0
-8402 9658 0
-8402 881 0
-9658 -881 8402 0
-8403 9659 0
-8403 691 0
-9659 -691 8403 0
-8404 9659 0
-8404 710 0
-9659 -710 8404 0
-8405 9659 0
-8405 728 0
-9659 -728 8405 0
-8406 9659 0
-8406 745 0
-9659 -745 8406 0
-8407 9659 0
-8407 761 0
-9659 -761 8407 0
-8408 9659 0
-8408 776 0
-9659 -776 8408 0
-8409 9659 0
-8409 790 0
-9659 -790 8409 0
-8410 9659 0
-8410 803 0
-9659 -803 8410 0
-8411 9659 0
-8411 815 0
-9659 -815 8411 0
-8412 9659 0
-8412 826 0
-9659 -826 8412 0
-8413 9659 0
-8413 836 0
-9659 -836 8413 0
-8414 9659 0
-8414 845 0
-9659 -845 8414 0
-8415 9659 0
-8415 853 0
-9659 -853 8415 0
-8416 9659 0
-8416 860 0
-9659 -860 8416 0
-8417 9659 0
-8417 866 0
-9659 -866 8417 0
-8418 9659 0
-8418 871 0
-9659 -871 8418 0
-8419 9659 0
-8419 875 0
-9659 -875 8419 0
-8420 9659 0
-8420 878 0
-9659 -878 8420 0
-8421 9659 0
-8421 880 0
-9659 -880 8421 0
-8422 9659 0
-8422 882 0
-9659 -882 8422 0
-8423 9660 0
-8423 692 0
-9660 -692 8423 0
-8424 9660 0
-8424 711 0
-9660 -711 8424 0
-8425 9660 0
-8425 729 0
-9660 -729 8425 0
-8426 9660 0
-8426 746 0
-9660 -746 8426 0
-8427 9660 0
-8427 762 0
-9660 -762 8427 0
-8428 9660 0
-8428 777 0
-9660 -777 8428 0
-8429 9660 0
-8429 791 0
-9660 -791 8429 0
-8430 9660 0
-8430 804 0
-9660 -804 8430 0
-8431 9660 0
-8431 816 0
-9660 -816 8431 0
-8432 9660 0
-8432 827 0
-9660 -827 8432 0
-8433 9660 0
-8433 837 0
-9660 -837 8433 0
-8434 9660 0
-8434 846 0
-9660 -846 8434 0
-8435 9660 0
-8435 854 0
-9660 -854 8435 0
-8436 9660 0
-8436 861 0
-9660 -861 8436 0
-8437 9660 0
-8437 867 0
-9660 -867 8437 0
-8438 9660 0
-8438 872 0
-9660 -872 8438 0
-8439 9660 0
-8439 876 0
-9660 -876 8439 0
-8440 9660 0
-8440 879 0
-9660 -879 8440 0
-8441 9660 0
-8441 881 0
-9660 -881 8441 0
-8442 9660 0
-8442 882 0
-9660 -882 8442 0
-8443 9661 0
-8443 673 0
-9661 -673 8443 0
-8444 9661 0
-8444 674 0
-9661 -674 8444 0
-8445 9661 0
-8445 675 0
-9661 -675 8445 0
-8446 9661 0
-8446 676 0
-9661 -676 8446 0
-8447 9661 0
-8447 677 0
-9661 -677 8447 0
-8448 9661 0
-8448 678 0
-9661 -678 8448 0
-8449 9661 0
-8449 679 0
-9661 -679 8449 0
-8450 9661 0
-8450 680 0
-9661 -680 8450 0
-8451 9661 0
-8451 681 0
-9661 -681 8451 0
-8452 9661 0
-8452 682 0
-9661 -682 8452 0
-8453 9661 0
-8453 683 0
-9661 -683 8453 0
-8454 9661 0
-8454 684 0
-9661 -684 8454 0
-8455 9661 0
-8455 685 0
-9661 -685 8455 0
-8456 9661 0
-8456 686 0
-9661 -686 8456 0
-8457 9661 0
-8457 687 0
-9661 -687 8457 0
-8458 9661 0
-8458 688 0
-9661 -688 8458 0
-8459 9661 0
-8459 689 0
-9661 -689 8459 0
-8460 9661 0
-8460 690 0
-9661 -690 8460 0
-8461 9661 0
-8461 691 0
-9661 -691 8461 0
-8462 9661 0
-8462 692 0
-9661 -692 8462 0
-8463 9662 0
-8463 673 0
-9662 -673 8463 0
-8464 9662 0
-8464 693 0
-9662 -693 8464 0
-8465 9662 0
-8465 694 0
-9662 -694 8465 0
-8466 9662 0
-8466 695 0
-9662 -695 8466 0
-8467 9662 0
-8467 696 0
-9662 -696 8467 0
-8468 9662 0
-8468 697 0
-9662 -697 8468 0
-8469 9662 0
-8469 698 0
-9662 -698 8469 0
-8470 9662 0
-8470 699 0
-9662 -699 8470 0
-8471 9662 0
-8471 700 0
-9662 -700 8471 0
-8472 9662 0
-8472 701 0
-9662 -701 8472 0
-8473 9662 0
-8473 702 0
-9662 -702 8473 0
-8474 9662 0
-8474 703 0
-9662 -703 8474 0
-8475 9662 0
-8475 704 0
-9662 -704 8475 0
-8476 9662 0
-8476 705 0
-9662 -705 8476 0
-8477 9662 0
-8477 706 0
-9662 -706 8477 0
-8478 9662 0
-8478 707 0
-9662 -707 8478 0
-8479 9662 0
-8479 708 0
-9662 -708 8479 0
-8480 9662 0
-8480 709 0
-9662 -709 8480 0
-8481 9662 0
-8481 710 0
-9662 -710 8481 0
-8482 9662 0
-8482 711 0
-9662 -711 8482 0
-8483 9663 0
-8483 674 0
-9663 -674 8483 0
-8484 9663 0
-8484 693 0
-9663 -693 8484 0
-8485 9663 0
-8485 712 0
-9663 -712 8485 0
-8486 9663 0
-8486 713 0
-9663 -713 8486 0
-8487 9663 0
-8487 714 0
-9663 -714 8487 0
-8488 9663 0
-8488 715 0
-9663 -715 8488 0
-8489 9663 0
-8489 716 0
-9663 -716 8489 0
-8490 9663 0
-8490 717 0
-9663 -717 8490 0
-8491 9663 0
-8491 718 0
-9663 -718 8491 0
-8492 9663 0
-8492 719 0
-9663 -719 8492 0
-8493 9663 0
-8493 720 0
-9663 -720 8493 0
-8494 9663 0
-8494 721 0
-9663 -721 8494 0
-8495 9663 0
-8495 722 0
-9663 -722 8495 0
-8496 9663 0
-8496 723 0
-9663 -723 8496 0
-8497 9663 0
-8497 724 0
-9663 -724 8497 0
-8498 9663 0
-8498 725 0
-9663 -725 8498 0
-8499 9663 0
-8499 726 0
-9663 -726 8499 0
-8500 9663 0
-8500 727 0
-9663 -727 8500 0
-8501 9663 0
-8501 728 0
-9663 -728 8501 0
-8502 9663 0
-8502 729 0
-9663 -729 8502 0
-8503 9664 0
-8503 675 0
-9664 -675 8503 0
-8504 9664 0
-8504 694 0
-9664 -694 8504 0
-8505 9664 0
-8505 712 0
-9664 -712 8505 0
-8506 9664 0
-8506 730 0
-9664 -730 8506 0
-8507 9664 0
-8507 731 0
-9664 -731 8507 0
-8508 9664 0
-8508 732 0
-9664 -732 8508 0
-8509 9664 0
-8509 733 0
-9664 -733 8509 0
-8510 9664 0
-8510 734 0
-9664 -734 8510 0
-8511 9664 0
-8511 735 0
-9664 -735 8511 0
-8512 9664 0
-8512 736 0
-9664 -736 8512 0
-8513 9664 0
-8513 737 0
-9664 -737 8513 0
-8514 9664 0
-8514 738 0
-9664 -738 8514 0
-8515 9664 0
-8515 739 0
-9664 -739 8515 0
-8516 9664 0
-8516 740 0
-9664 -740 8516 0
-8517 9664 0
-8517 741 0
-9664 -741 8517 0
-8518 9664 0
-8518 742 0
-9664 -742 8518 0
-8519 9664 0
-8519 743 0
-9664 -743 8519 0
-8520 9664 0
-8520 744 0
-9664 -744 8520 0
-8521 9664 0
-8521 745 0
-9664 -745 8521 0
-8522 9664 0
-8522 746 0
-9664 -746 8522 0
-8523 9665 0
-8523 676 0
-9665 -676 8523 0
-8524 9665 0
-8524 695 0
-9665 -695 8524 0
-8525 9665 0
-8525 713 0
-9665 -713 8525 0
-8526 9665 0
-8526 730 0
-9665 -730 8526 0
-8527 9665 0
-8527 747 0
-9665 -747 8527 0
-8528 9665 0
-8528 748 0
-9665 -748 8528 0
-8529 9665 0
-8529 749 0
-9665 -749 8529 0
-8530 9665 0
-8530 750 0
-9665 -750 8530 0
-8531 9665 0
-8531 751 0
-9665 -751 8531 0
-8532 9665 0
-8532 752 0
-9665 -752 8532 0
-8533 9665 0
-8533 753 0
-9665 -753 8533 0
-8534 9665 0
-8534 754 0
-9665 -754 8534 0
-8535 9665 0
-8535 755 0
-9665 -755 8535 0
-8536 9665 0
-8536 756 0
-9665 -756 8536 0
-8537 9665 0
-8537 757 0
-9665 -757 8537 0
-8538 9665 0
-8538 758 0
-9665 -758 8538 0
-8539 9665 0
-8539 759 0
-9665 -759 8539 0
-8540 9665 0
-8540 760 0
-9665 -760 8540 0
-8541 9665 0
-8541 761 0
-9665 -761 8541 0
-8542 9665 0
-8542 762 0
-9665 -762 8542 0
-8543 9666 0
-8543 677 0
-9666 -677 8543 0
-8544 9666 0
-8544 696 0
-9666 -696 8544 0
-8545 9666 0
-8545 714 0
-9666 -714 8545 0
-8546 9666 0
-8546 731 0
-9666 -731 8546 0
-8547 9666 0
-8547 747 0
-9666 -747 8547 0
-8548 9666 0
-8548 763 0
-9666 -763 8548 0
-8549 9666 0
-8549 764 0
-9666 -764 8549 0
-8550 9666 0
-8550 765 0
-9666 -765 8550 0
-8551 9666 0
-8551 766 0
-9666 -766 8551 0
-8552 9666 0
-8552 767 0
-9666 -767 8552 0
-8553 9666 0
-8553 768 0
-9666 -768 8553 0
-8554 9666 0
-8554 769 0
-9666 -769 8554 0
-8555 9666 0
-8555 770 0
-9666 -770 8555 0
-8556 9666 0
-8556 771 0
-9666 -771 8556 0
-8557 9666 0
-8557 772 0
-9666 -772 8557 0
-8558 9666 0
-8558 773 0
-9666 -773 8558 0
-8559 9666 0
-8559 774 0
-9666 -774 8559 0
-8560 9666 0
-8560 775 0
-9666 -775 8560 0
-8561 9666 0
-8561 776 0
-9666 -776 8561 0
-8562 9666 0
-8562 777 0
-9666 -777 8562 0
-8563 9667 0
-8563 678 0
-9667 -678 8563 0
-8564 9667 0
-8564 697 0
-9667 -697 8564 0
-8565 9667 0
-8565 715 0
-9667 -715 8565 0
-8566 9667 0
-8566 732 0
-9667 -732 8566 0
-8567 9667 0
-8567 748 0
-9667 -748 8567 0
-8568 9667 0
-8568 763 0
-9667 -763 8568 0
-8569 9667 0
-8569 778 0
-9667 -778 8569 0
-8570 9667 0
-8570 779 0
-9667 -779 8570 0
-8571 9667 0
-8571 780 0
-9667 -780 8571 0
-8572 9667 0
-8572 781 0
-9667 -781 8572 0
-8573 9667 0
-8573 782 0
-9667 -782 8573 0
-8574 9667 0
-8574 783 0
-9667 -783 8574 0
-8575 9667 0
-8575 784 0
-9667 -784 8575 0
-8576 9667 0
-8576 785 0
-9667 -785 8576 0
-8577 9667 0
-8577 786 0
-9667 -786 8577 0
-8578 9667 0
-8578 787 0
-9667 -787 8578 0
-8579 9667 0
-8579 788 0
-9667 -788 8579 0
-8580 9667 0
-8580 789 0
-9667 -789 8580 0
-8581 9667 0
-8581 790 0
-9667 -790 8581 0
-8582 9667 0
-8582 791 0
-9667 -791 8582 0
-8583 9668 0
-8583 679 0
-9668 -679 8583 0
-8584 9668 0
-8584 698 0
-9668 -698 8584 0
-8585 9668 0
-8585 716 0
-9668 -716 8585 0
-8586 9668 0
-8586 733 0
-9668 -733 8586 0
-8587 9668 0
-8587 749 0
-9668 -749 8587 0
-8588 9668 0
-8588 764 0
-9668 -764 8588 0
-8589 9668 0
-8589 778 0
-9668 -778 8589 0
-8590 9668 0
-8590 792 0
-9668 -792 8590 0
-8591 9668 0
-8591 793 0
-9668 -793 8591 0
-8592 9668 0
-8592 794 0
-9668 -794 8592 0
-8593 9668 0
-8593 795 0
-9668 -795 8593 0
-8594 9668 0
-8594 796 0
-9668 -796 8594 0
-8595 9668 0
-8595 797 0
-9668 -797 8595 0
-8596 9668 0
-8596 798 0
-9668 -798 8596 0
-8597 9668 0
-8597 799 0
-9668 -799 8597 0
-8598 9668 0
-8598 800 0
-9668 -800 8598 0
-8599 9668 0
-8599 801 0
-9668 -801 8599 0
-8600 9668 0
-8600 802 0
-9668 -802 8600 0
-8601 9668 0
-8601 803 0
-9668 -803 8601 0
-8602 9668 0
-8602 804 0
-9668 -804 8602 0
-8603 9669 0
-8603 680 0
-9669 -680 8603 0
-8604 9669 0
-8604 699 0
-9669 -699 8604 0
-8605 9669 0
-8605 717 0
-9669 -717 8605 0
-8606 9669 0
-8606 734 0
-9669 -734 8606 0
-8607 9669 0
-8607 750 0
-9669 -750 8607 0
-8608 9669 0
-8608 765 0
-9669 -765 8608 0
-8609 9669 0
-8609 779 0
-9669 -779 8609 0
-8610 9669 0
-8610 792 0
-9669 -792 8610 0
-8611 9669 0
-8611 805 0
-9669 -805 8611 0
-8612 9669 0
-8612 806 0
-9669 -806 8612 0
-8613 9669 0
-8613 807 0
-9669 -807 8613 0
-8614 9669 0
-8614 808 0
-9669 -808 8614 0
-8615 9669 0
-8615 809 0
-9669 -809 8615 0
-8616 9669 0
-8616 810 0
-9669 -810 8616 0
-8617 9669 0
-8617 811 0
-9669 -811 8617 0
-8618 9669 0
-8618 812 0
-9669 -812 8618 0
-8619 9669 0
-8619 813 0
-9669 -813 8619 0
-8620 9669 0
-8620 814 0
-9669 -814 8620 0
-8621 9669 0
-8621 815 0
-9669 -815 8621 0
-8622 9669 0
-8622 816 0
-9669 -816 8622 0
-8623 9670 0
-8623 681 0
-9670 -681 8623 0
-8624 9670 0
-8624 700 0
-9670 -700 8624 0
-8625 9670 0
-8625 718 0
-9670 -718 8625 0
-8626 9670 0
-8626 735 0
-9670 -735 8626 0
-8627 9670 0
-8627 751 0
-9670 -751 8627 0
-8628 9670 0
-8628 766 0
-9670 -766 8628 0
-8629 9670 0
-8629 780 0
-9670 -780 8629 0
-8630 9670 0
-8630 793 0
-9670 -793 8630 0
-8631 9670 0
-8631 805 0
-9670 -805 8631 0
-8632 9670 0
-8632 817 0
-9670 -817 8632 0
-8633 9670 0
-8633 818 0
-9670 -818 8633 0
-8634 9670 0
-8634 819 0
-9670 -819 8634 0
-8635 9670 0
-8635 820 0
-9670 -820 8635 0
-8636 9670 0
-8636 821 0
-9670 -821 8636 0
-8637 9670 0
-8637 822 0
-9670 -822 8637 0
-8638 9670 0
-8638 823 0
-9670 -823 8638 0
-8639 9670 0
-8639 824 0
-9670 -824 8639 0
-8640 9670 0
-8640 825 0
-9670 -825 8640 0
-8641 9670 0
-8641 826 0
-9670 -826 8641 0
-8642 9670 0
-8642 827 0
-9670 -827 8642 0
-8643 9671 0
-8643 682 0
-9671 -682 8643 0
-8644 9671 0
-8644 701 0
-9671 -701 8644 0
-8645 9671 0
-8645 719 0
-9671 -719 8645 0
-8646 9671 0
-8646 736 0
-9671 -736 8646 0
-8647 9671 0
-8647 752 0
-9671 -752 8647 0
-8648 9671 0
-8648 767 0
-9671 -767 8648 0
-8649 9671 0
-8649 781 0
-9671 -781 8649 0
-8650 9671 0
-8650 794 0
-9671 -794 8650 0
-8651 9671 0
-8651 806 0
-9671 -806 8651 0
-8652 9671 0
-8652 817 0
-9671 -817 8652 0
-8653 9671 0
-8653 828 0
-9671 -828 8653 0
-8654 9671 0
-8654 829 0
-9671 -829 8654 0
-8655 9671 0
-8655 830 0
-9671 -830 8655 0
-8656 9671 0
-8656 831 0
-9671 -831 8656 0
-8657 9671 0
-8657 832 0
-9671 -832 8657 0
-8658 9671 0
-8658 833 0
-9671 -833 8658 0
-8659 9671 0
-8659 834 0
-9671 -834 8659 0
-8660 9671 0
-8660 835 0
-9671 -835 8660 0
-8661 9671 0
-8661 836 0
-9671 -836 8661 0
-8662 9671 0
-8662 837 0
-9671 -837 8662 0
-8663 9672 0
-8663 683 0
-9672 -683 8663 0
-8664 9672 0
-8664 702 0
-9672 -702 8664 0
-8665 9672 0
-8665 720 0
-9672 -720 8665 0
-8666 9672 0
-8666 737 0
-9672 -737 8666 0
-8667 9672 0
-8667 753 0
-9672 -753 8667 0
-8668 9672 0
-8668 768 0
-9672 -768 8668 0
-8669 9672 0
-8669 782 0
-9672 -782 8669 0
-8670 9672 0
-8670 795 0
-9672 -795 8670 0
-8671 9672 0
-8671 807 0
-9672 -807 8671 0
-8672 9672 0
-8672 818 0
-9672 -818 8672 0
-8673 9672 0
-8673 828 0
-9672 -828 8673 0
-8674 9672 0
-8674 838 0
-9672 -838 8674 0
-8675 9672 0
-8675 839 0
-9672 -839 8675 0
-8676 9672 0
-8676 840 0
-9672 -840 8676 0
-8677 9672 0
-8677 841 0
-9672 -841 8677 0
-8678 9672 0
-8678 842 0
-9672 -842 8678 0
-8679 9672 0
-8679 843 0
-9672 -843 8679 0
-8680 9672 0
-8680 844 0
-9672 -844 8680 0
-8681 9672 0
-8681 845 0
-9672 -845 8681 0
-8682 9672 0
-8682 846 0
-9672 -846 8682 0
-8683 9673 0
-8683 684 0
-9673 -684 8683 0
-8684 9673 0
-8684 703 0
-9673 -703 8684 0
-8685 9673 0
-8685 721 0
-9673 -721 8685 0
-8686 9673 0
-8686 738 0
-9673 -738 8686 0
-8687 9673 0
-8687 754 0
-9673 -754 8687 0
-8688 9673 0
-8688 769 0
-9673 -769 8688 0
-8689 9673 0
-8689 783 0
-9673 -783 8689 0
-8690 9673 0
-8690 796 0
-9673 -796 8690 0
-8691 9673 0
-8691 808 0
-9673 -808 8691 0
-8692 9673 0
-8692 819 0
-9673 -819 8692 0
-8693 9673 0
-8693 829 0
-9673 -829 8693 0
-8694 9673 0
-8694 838 0
-9673 -838 8694 0
-8695 9673 0
-8695 847 0
-9673 -847 8695 0
-8696 9673 0
-8696 848 0
-9673 -848 8696 0
-8697 9673 0
-8697 849 0
-9673 -849 8697 0
-8698 9673 0
-8698 850 0
-9673 -850 8698 0
-8699 9673 0
-8699 851 0
-9673 -851 8699 0
-8700 9673 0
-8700 852 0
-9673 -852 8700 0
-8701 9673 0
-8701 853 0
-9673 -853 8701 0
-8702 9673 0
-8702 854 0
-9673 -854 8702 0
-8703 9674 0
-8703 685 0
-9674 -685 8703 0
-8704 9674 0
-8704 704 0
-9674 -704 8704 0
-8705 9674 0
-8705 722 0
-9674 -722 8705 0
-8706 9674 0
-8706 739 0
-9674 -739 8706 0
-8707 9674 0
-8707 755 0
-9674 -755 8707 0
-8708 9674 0
-8708 770 0
-9674 -770 8708 0
-8709 9674 0
-8709 784 0
-9674 -784 8709 0
-8710 9674 0
-8710 797 0
-9674 -797 8710 0
-8711 9674 0
-8711 809 0
-9674 -809 8711 0
-8712 9674 0
-8712 820 0
-9674 -820 8712 0
-8713 9674 0
-8713 830 0
-9674 -830 8713 0
-8714 9674 0
-8714 839 0
-9674 -839 8714 0
-8715 9674 0
-8715 847 0
-9674 -847 8715 0
-8716 9674 0
-8716 855 0
-9674 -855 8716 0
-8717 9674 0
-8717 856 0
-9674 -856 8717 0
-8718 9674 0
-8718 857 0
-9674 -857 8718 0
-8719 9674 0
-8719 858 0
-9674 -858 8719 0
-8720 9674 0
-8720 859 0
-9674 -859 8720 0
-8721 9674 0
-8721 860 0
-9674 -860 8721 0
-8722 9674 0
-8722 861 0
-9674 -861 8722 0
-8723 9675 0
-8723 686 0
-9675 -686 8723 0
-8724 9675 0
-8724 705 0
-9675 -705 8724 0
-8725 9675 0
-8725 723 0
-9675 -723 8725 0
-8726 9675 0
-8726 740 0
-9675 -740 8726 0
-8727 9675 0
-8727 756 0
-9675 -756 8727 0
-8728 9675 0
-8728 771 0
-9675 -771 8728 0
-8729 9675 0
-8729 785 0
-9675 -785 8729 0
-8730 9675 0
-8730 798 0
-9675 -798 8730 0
-8731 9675 0
-8731 810 0
-9675 -810 8731 0
-8732 9675 0
-8732 821 0
-9675 -821 8732 0
-8733 9675 0
-8733 831 0
-9675 -831 8733 0
-8734 9675 0
-8734 840 0
-9675 -840 8734 0
-8735 9675 0
-8735 848 0
-9675 -848 8735 0
-8736 9675 0
-8736 855 0
-9675 -855 8736 0
-8737 9675 0
-8737 862 0
-9675 -862 8737 0
-8738 9675 0
-8738 863 0
-9675 -863 8738 0
-8739 9675 0
-8739 864 0
-9675 -864 8739 0
-8740 9675 0
-8740 865 0
-9675 -865 8740 0
-8741 9675 0
-8741 866 0
-9675 -866 8741 0
-8742 9675 0
-8742 867 0
-9675 -867 8742 0
-8743 9676 0
-8743 687 0
-9676 -687 8743 0
-8744 9676 0
-8744 706 0
-9676 -706 8744 0
-8745 9676 0
-8745 724 0
-9676 -724 8745 0
-8746 9676 0
-8746 741 0
-9676 -741 8746 0
-8747 9676 0
-8747 757 0
-9676 -757 8747 0
-8748 9676 0
-8748 772 0
-9676 -772 8748 0
-8749 9676 0
-8749 786 0
-9676 -786 8749 0
-8750 9676 0
-8750 799 0
-9676 -799 8750 0
-8751 9676 0
-8751 811 0
-9676 -811 8751 0
-8752 9676 0
-8752 822 0
-9676 -822 8752 0
-8753 9676 0
-8753 832 0
-9676 -832 8753 0
-8754 9676 0
-8754 841 0
-9676 -841 8754 0
-8755 9676 0
-8755 849 0
-9676 -849 8755 0
-8756 9676 0
-8756 856 0
-9676 -856 8756 0
-8757 9676 0
-8757 862 0
-9676 -862 8757 0
-8758 9676 0
-8758 868 0
-9676 -868 8758 0
-8759 9676 0
-8759 869 0
-9676 -869 8759 0
-8760 9676 0
-8760 870 0
-9676 -870 8760 0
-8761 9676 0
-8761 871 0
-9676 -871 8761 0
-8762 9676 0
-8762 872 0
-9676 -872 8762 0
-8763 9677 0
-8763 688 0
-9677 -688 8763 0
-8764 9677 0
-8764 707 0
-9677 -707 8764 0
-8765 9677 0
-8765 725 0
-9677 -725 8765 0
-8766 9677 0
-8766 742 0
-9677 -742 8766 0
-8767 9677 0
-8767 758 0
-9677 -758 8767 0
-8768 9677 0
-8768 773 0
-9677 -773 8768 0
-8769 9677 0
-8769 787 0
-9677 -787 8769 0
-8770 9677 0
-8770 800 0
-9677 -800 8770 0
-8771 9677 0
-8771 812 0
-9677 -812 8771 0
-8772 9677 0
-8772 823 0
-9677 -823 8772 0
-8773 9677 0
-8773 833 0
-9677 -833 8773 0
-8774 9677 0
-8774 842 0
-9677 -842 8774 0
-8775 9677 0
-8775 850 0
-9677 -850 8775 0
-8776 9677 0
-8776 857 0
-9677 -857 8776 0
-8777 9677 0
-8777 863 0
-9677 -863 8777 0
-8778 9677 0
-8778 868 0
-9677 -868 8778 0
-8779 9677 0
-8779 873 0
-9677 -873 8779 0
-8780 9677 0
-8780 874 0
-9677 -874 8780 0
-8781 9677 0
-8781 875 0
-9677 -875 8781 0
-8782 9677 0
-8782 876 0
-9677 -876 8782 0
-8783 9678 0
-8783 689 0
-9678 -689 8783 0
-8784 9678 0
-8784 708 0
-9678 -708 8784 0
-8785 9678 0
-8785 726 0
-9678 -726 8785 0
-8786 9678 0
-8786 743 0
-9678 -743 8786 0
-8787 9678 0
-8787 759 0
-9678 -759 8787 0
-8788 9678 0
-8788 774 0
-9678 -774 8788 0
-8789 9678 0
-8789 788 0
-9678 -788 8789 0
-8790 9678 0
-8790 801 0
-9678 -801 8790 0
-8791 9678 0
-8791 813 0
-9678 -813 8791 0
-8792 9678 0
-8792 824 0
-9678 -824 8792 0
-8793 9678 0
-8793 834 0
-9678 -834 8793 0
-8794 9678 0
-8794 843 0
-9678 -843 8794 0
-8795 9678 0
-8795 851 0
-9678 -851 8795 0
-8796 9678 0
-8796 858 0
-9678 -858 8796 0
-8797 9678 0
-8797 864 0
-9678 -864 8797 0
-8798 9678 0
-8798 869 0
-9678 -869 8798 0
-8799 9678 0
-8799 873 0
-9678 -873 8799 0
-8800 9678 0
-8800 877 0
-9678 -877 8800 0
-8801 9678 0
-8801 878 0
-9678 -878 8801 0
-8802 9678 0
-8802 879 0
-9678 -879 8802 0
-8803 9679 0
-8803 690 0
-9679 -690 8803 0
-8804 9679 0
-8804 709 0
-9679 -709 8804 0
-8805 9679 0
-8805 727 0
-9679 -727 8805 0
-8806 9679 0
-8806 744 0
-9679 -744 8806 0
-8807 9679 0
-8807 760 0
-9679 -760 8807 0
-8808 9679 0
-8808 775 0
-9679 -775 8808 0
-8809 9679 0
-8809 789 0
-9679 -789 8809 0
-8810 9679 0
-8810 802 0
-9679 -802 8810 0
-8811 9679 0
-8811 814 0
-9679 -814 8811 0
-8812 9679 0
-8812 825 0
-9679 -825 8812 0
-8813 9679 0
-8813 835 0
-9679 -835 8813 0
-8814 9679 0
-8814 844 0
-9679 -844 8814 0
-8815 9679 0
-8815 852 0
-9679 -852 8815 0
-8816 9679 0
-8816 859 0
-9679 -859 8816 0
-8817 9679 0
-8817 865 0
-9679 -865 8817 0
-8818 9679 0
-8818 870 0
-9679 -870 8818 0
-8819 9679 0
-8819 874 0
-9679 -874 8819 0
-8820 9679 0
-8820 877 0
-9679 -877 8820 0
-8821 9679 0
-8821 880 0
-9679 -880 8821 0
-8822 9679 0
-8822 881 0
-9679 -881 8822 0
-8823 9680 0
-8823 691 0
-9680 -691 8823 0
-8824 9680 0
-8824 710 0
-9680 -710 8824 0
-8825 9680 0
-8825 728 0
-9680 -728 8825 0
-8826 9680 0
-8826 745 0
-9680 -745 8826 0
-8827 9680 0
-8827 761 0
-9680 -761 8827 0
-8828 9680 0
-8828 776 0
-9680 -776 8828 0
-8829 9680 0
-8829 790 0
-9680 -790 8829 0
-8830 9680 0
-8830 803 0
-9680 -803 8830 0
-8831 9680 0
-8831 815 0
-9680 -815 8831 0
-8832 9680 0
-8832 826 0
-9680 -826 8832 0
-8833 9680 0
-8833 836 0
-9680 -836 8833 0
-8834 9680 0
-8834 845 0
-9680 -845 8834 0
-8835 9680 0
-8835 853 0
-9680 -853 8835 0
-8836 9680 0
-8836 860 0
-9680 -860 8836 0
-8837 9680 0
-8837 866 0
-9680 -866 8837 0
-8838 9680 0
-8838 871 0
-9680 -871 8838 0
-8839 9680 0
-8839 875 0
-9680 -875 8839 0
-8840 9680 0
-8840 878 0
-9680 -878 8840 0
-8841 9680 0
-8841 880 0
-9680 -880 8841 0
-8842 9680 0
-8842 882 0
-9680 -882 8842 0
-8843 9681 0
-8843 692 0
-9681 -692 8843 0
-8844 9681 0
-8844 711 0
-9681 -711 8844 0
-8845 9681 0
-8845 729 0
-9681 -729 8845 0
-8846 9681 0
-8846 746 0
-9681 -746 8846 0
-8847 9681 0
-8847 762 0
-9681 -762 8847 0
-8848 9681 0
-8848 777 0
-9681 -777 8848 0
-8849 9681 0
-8849 791 0
-9681 -791 8849 0
-8850 9681 0
-8850 804 0
-9681 -804 8850 0
-8851 9681 0
-8851 816 0
-9681 -816 8851 0
-8852 9681 0
-8852 827 0
-9681 -827 8852 0
-8853 9681 0
-8853 837 0
-9681 -837 8853 0
-8854 9681 0
-8854 846 0
-9681 -846 8854 0
-8855 9681 0
-8855 854 0
-9681 -854 8855 0
-8856 9681 0
-8856 861 0
-9681 -861 8856 0
-8857 9681 0
-8857 867 0
-9681 -867 8857 0
-8858 9681 0
-8858 872 0
-9681 -872 8858 0
-8859 9681 0
-8859 876 0
-9681 -876 8859 0
-8860 9681 0
-8860 879 0
-9681 -879 8860 0
-8861 9681 0
-8861 881 0
-9681 -881 8861 0
-8862 9681 0
-8862 882 0
-9681 -882 8862 0
-8863 9682 0
-8863 673 0
-9682 -673 8863 0
-8864 9682 0
-8864 674 0
-9682 -674 8864 0
-8865 9682 0
-8865 675 0
-9682 -675 8865 0
-8866 9682 0
-8866 676 0
-9682 -676 8866 0
-8867 9682 0
-8867 677 0
-9682 -677 8867 0
-8868 9682 0
-8868 678 0
-9682 -678 8868 0
-8869 9682 0
-8869 679 0
-9682 -679 8869 0
-8870 9682 0
-8870 680 0
-9682 -680 8870 0
-8871 9682 0
-8871 681 0
-9682 -681 8871 0
-8872 9682 0
-8872 682 0
-9682 -682 8872 0
-8873 9682 0
-8873 683 0
-9682 -683 8873 0
-8874 9682 0
-8874 684 0
-9682 -684 8874 0
-8875 9682 0
-8875 685 0
-9682 -685 8875 0
-8876 9682 0
-8876 686 0
-9682 -686 8876 0
-8877 9682 0
-8877 687 0
-9682 -687 8877 0
-8878 9682 0
-8878 688 0
-9682 -688 8878 0
-8879 9682 0
-8879 689 0
-9682 -689 8879 0
-8880 9682 0
-8880 690 0
-9682 -690 8880 0
-8881 9682 0
-8881 691 0
-9682 -691 8881 0
-8882 9682 0
-8882 692 0
-9682 -692 8882 0
-8883 9683 0
-8883 673 0
-9683 -673 8883 0
-8884 9683 0
-8884 693 0
-9683 -693 8884 0
-8885 9683 0
-8885 694 0
-9683 -694 8885 0
-8886 9683 0
-8886 695 0
-9683 -695 8886 0
-8887 9683 0
-8887 696 0
-9683 -696 8887 0
-8888 9683 0
-8888 697 0
-9683 -697 8888 0
-8889 9683 0
-8889 698 0
-9683 -698 8889 0
-8890 9683 0
-8890 699 0
-9683 -699 8890 0
-8891 9683 0
-8891 700 0
-9683 -700 8891 0
-8892 9683 0
-8892 701 0
-9683 -701 8892 0
-8893 9683 0
-8893 702 0
-9683 -702 8893 0
-8894 9683 0
-8894 703 0
-9683 -703 8894 0
-8895 9683 0
-8895 704 0
-9683 -704 8895 0
-8896 9683 0
-8896 705 0
-9683 -705 8896 0
-8897 9683 0
-8897 706 0
-9683 -706 8897 0
-8898 9683 0
-8898 707 0
-9683 -707 8898 0
-8899 9683 0
-8899 708 0
-9683 -708 8899 0
-8900 9683 0
-8900 709 0
-9683 -709 8900 0
-8901 9683 0
-8901 710 0
-9683 -710 8901 0
-8902 9683 0
-8902 711 0
-9683 -711 8902 0
-8903 9684 0
-8903 674 0
-9684 -674 8903 0
-8904 9684 0
-8904 693 0
-9684 -693 8904 0
-8905 9684 0
-8905 712 0
-9684 -712 8905 0
-8906 9684 0
-8906 713 0
-9684 -713 8906 0
-8907 9684 0
-8907 714 0
-9684 -714 8907 0
-8908 9684 0
-8908 715 0
-9684 -715 8908 0
-8909 9684 0
-8909 716 0
-9684 -716 8909 0
-8910 9684 0
-8910 717 0
-9684 -717 8910 0
-8911 9684 0
-8911 718 0
-9684 -718 8911 0
-8912 9684 0
-8912 719 0
-9684 -719 8912 0
-8913 9684 0
-8913 720 0
-9684 -720 8913 0
-8914 9684 0
-8914 721 0
-9684 -721 8914 0
-8915 9684 0
-8915 722 0
-9684 -722 8915 0
-8916 9684 0
-8916 723 0
-9684 -723 8916 0
-8917 9684 0
-8917 724 0
-9684 -724 8917 0
-8918 9684 0
-8918 725 0
-9684 -725 8918 0
-8919 9684 0
-8919 726 0
-9684 -726 8919 0
-8920 9684 0
-8920 727 0
-9684 -727 8920 0
-8921 9684 0
-8921 728 0
-9684 -728 8921 0
-8922 9684 0
-8922 729 0
-9684 -729 8922 0
-8923 9685 0
-8923 675 0
-9685 -675 8923 0
-8924 9685 0
-8924 694 0
-9685 -694 8924 0
-8925 9685 0
-8925 712 0
-9685 -712 8925 0
-8926 9685 0
-8926 730 0
-9685 -730 8926 0
-8927 9685 0
-8927 731 0
-9685 -731 8927 0
-8928 9685 0
-8928 732 0
-9685 -732 8928 0
-8929 9685 0
-8929 733 0
-9685 -733 8929 0
-8930 9685 0
-8930 734 0
-9685 -734 8930 0
-8931 9685 0
-8931 735 0
-9685 -735 8931 0
-8932 9685 0
-8932 736 0
-9685 -736 8932 0
-8933 9685 0
-8933 737 0
-9685 -737 8933 0
-8934 9685 0
-8934 738 0
-9685 -738 8934 0
-8935 9685 0
-8935 739 0
-9685 -739 8935 0
-8936 9685 0
-8936 740 0
-9685 -740 8936 0
-8937 9685 0
-8937 741 0
-9685 -741 8937 0
-8938 9685 0
-8938 742 0
-9685 -742 8938 0
-8939 9685 0
-8939 743 0
-9685 -743 8939 0
-8940 9685 0
-8940 744 0
-9685 -744 8940 0
-8941 9685 0
-8941 745 0
-9685 -745 8941 0
-8942 9685 0
-8942 746 0
-9685 -746 8942 0
-8943 9686 0
-8943 676 0
-9686 -676 8943 0
-8944 9686 0
-8944 695 0
-9686 -695 8944 0
-8945 9686 0
-8945 713 0
-9686 -713 8945 0
-8946 9686 0
-8946 730 0
-9686 -730 8946 0
-8947 9686 0
-8947 747 0
-9686 -747 8947 0
-8948 9686 0
-8948 748 0
-9686 -748 8948 0
-8949 9686 0
-8949 749 0
-9686 -749 8949 0
-8950 9686 0
-8950 750 0
-9686 -750 8950 0
-8951 9686 0
-8951 751 0
-9686 -751 8951 0
-8952 9686 0
-8952 752 0
-9686 -752 8952 0
-8953 9686 0
-8953 753 0
-9686 -753 8953 0
-8954 9686 0
-8954 754 0
-9686 -754 8954 0
-8955 9686 0
-8955 755 0
-9686 -755 8955 0
-8956 9686 0
-8956 756 0
-9686 -756 8956 0
-8957 9686 0
-8957 757 0
-9686 -757 8957 0
-8958 9686 0
-8958 758 0
-9686 -758 8958 0
-8959 9686 0
-8959 759 0
-9686 -759 8959 0
-8960 9686 0
-8960 760 0
-9686 -760 8960 0
-8961 9686 0
-8961 761 0
-9686 -761 8961 0
-8962 9686 0
-8962 762 0
-9686 -762 8962 0
-8963 9687 0
-8963 677 0
-9687 -677 8963 0
-8964 9687 0
-8964 696 0
-9687 -696 8964 0
-8965 9687 0
-8965 714 0
-9687 -714 8965 0
-8966 9687 0
-8966 731 0
-9687 -731 8966 0
-8967 9687 0
-8967 747 0
-9687 -747 8967 0
-8968 9687 0
-8968 763 0
-9687 -763 8968 0
-8969 9687 0
-8969 764 0
-9687 -764 8969 0
-8970 9687 0
-8970 765 0
-9687 -765 8970 0
-8971 9687 0
-8971 766 0
-9687 -766 8971 0
-8972 9687 0
-8972 767 0
-9687 -767 8972 0
-8973 9687 0
-8973 768 0
-9687 -768 8973 0
-8974 9687 0
-8974 769 0
-9687 -769 8974 0
-8975 9687 0
-8975 770 0
-9687 -770 8975 0
-8976 9687 0
-8976 771 0
-9687 -771 8976 0
-8977 9687 0
-8977 772 0
-9687 -772 8977 0
-8978 9687 0
-8978 773 0
-9687 -773 8978 0
-8979 9687 0
-8979 774 0
-9687 -774 8979 0
-8980 9687 0
-8980 775 0
-9687 -775 8980 0
-8981 9687 0
-8981 776 0
-9687 -776 8981 0
-8982 9687 0
-8982 777 0
-9687 -777 8982 0
-8983 9688 0
-8983 678 0
-9688 -678 8983 0
-8984 9688 0
-8984 697 0
-9688 -697 8984 0
-8985 9688 0
-8985 715 0
-9688 -715 8985 0
-8986 9688 0
-8986 732 0
-9688 -732 8986 0
-8987 9688 0
-8987 748 0
-9688 -748 8987 0
-8988 9688 0
-8988 763 0
-9688 -763 8988 0
-8989 9688 0
-8989 778 0
-9688 -778 8989 0
-8990 9688 0
-8990 779 0
-9688 -779 8990 0
-8991 9688 0
-8991 780 0
-9688 -780 8991 0
-8992 9688 0
-8992 781 0
-9688 -781 8992 0
-8993 9688 0
-8993 782 0
-9688 -782 8993 0
-8994 9688 0
-8994 783 0
-9688 -783 8994 0
-8995 9688 0
-8995 784 0
-9688 -784 8995 0
-8996 9688 0
-8996 785 0
-9688 -785 8996 0
-8997 9688 0
-8997 786 0
-9688 -786 8997 0
-8998 9688 0
-8998 787 0
-9688 -787 8998 0
-8999 9688 0
-8999 788 0
-9688 -788 8999 0
-9000 9688 0
-9000 789 0
-9688 -789 9000 0
-9001 9688 0
-9001 790 0
-9688 -790 9001 0
-9002 9688 0
-9002 791 0
-9688 -791 9002 0
-9003 9689 0
-9003 679 0
-9689 -679 9003 0
-9004 9689 0
-9004 698 0
-9689 -698 9004 0
-9005 9689 0
-9005 716 0
-9689 -716 9005 0
-9006 9689 0
-9006 733 0
-9689 -733 9006 0
-9007 9689 0
-9007 749 0
-9689 -749 9007 0
-9008 9689 0
-9008 764 0
-9689 -764 9008 0
-9009 9689 0
-9009 778 0
-9689 -778 9009 0
-9010 9689 0
-9010 792 0
-9689 -792 9010 0
-9011 9689 0
-9011 793 0
-9689 -793 9011 0
-9012 9689 0
-9012 794 0
-9689 -794 9012 0
-9013 9689 0
-9013 795 0
-9689 -795 9013 0
-9014 9689 0
-9014 796 0
-9689 -796 9014 0
-9015 9689 0
-9015 797 0
-9689 -797 9015 0
-9016 9689 0
-9016 798 0
-9689 -798 9016 0
-9017 9689 0
-9017 799 0
-9689 -799 9017 0
-9018 9689 0
-9018 800 0
-9689 -800 9018 0
-9019 9689 0
-9019 801 0
-9689 -801 9019 0
-9020 9689 0
-9020 802 0
-9689 -802 9020 0
-9021 9689 0
-9021 803 0
-9689 -803 9021 0
-9022 9689 0
-9022 804 0
-9689 -804 9022 0
-9023 9690 0
-9023 680 0
-9690 -680 9023 0
-9024 9690 0
-9024 699 0
-9690 -699 9024 0
-9025 9690 0
-9025 717 0
-9690 -717 9025 0
-9026 9690 0
-9026 734 0
-9690 -734 9026 0
-9027 9690 0
-9027 750 0
-9690 -750 9027 0
-9028 9690 0
-9028 765 0
-9690 -765 9028 0
-9029 9690 0
-9029 779 0
-9690 -779 9029 0
-9030 9690 0
-9030 792 0
-9690 -792 9030 0
-9031 9690 0
-9031 805 0
-9690 -805 9031 0
-9032 9690 0
-9032 806 0
-9690 -806 9032 0
-9033 9690 0
-9033 807 0
-9690 -807 9033 0
-9034 9690 0
-9034 808 0
-9690 -808 9034 0
-9035 9690 0
-9035 809 0
-9690 -809 9035 0
-9036 9690 0
-9036 810 0
-9690 -810 9036 0
-9037 9690 0
-9037 811 0
-9690 -811 9037 0
-9038 9690 0
-9038 812 0
-9690 -812 9038 0
-9039 9690 0
-9039 813 0
-9690 -813 9039 0
-9040 9690 0
-9040 814 0
-9690 -814 9040 0
-9041 9690 0
-9041 815 0
-9690 -815 9041 0
-9042 9690 0
-9042 816 0
-9690 -816 9042 0
-9043 9691 0
-9043 681 0
-9691 -681 9043 0
-9044 9691 0
-9044 700 0
-9691 -700 9044 0
-9045 9691 0
-9045 718 0
-9691 -718 9045 0
-9046 9691 0
-9046 735 0
-9691 -735 9046 0
-9047 9691 0
-9047 751 0
-9691 -751 9047 0
-9048 9691 0
-9048 766 0
-9691 -766 9048 0
-9049 9691 0
-9049 780 0
-9691 -780 9049 0
-9050 9691 0
-9050 793 0
-9691 -793 9050 0
-9051 9691 0
-9051 805 0
-9691 -805 9051 0
-9052 9691 0
-9052 817 0
-9691 -817 9052 0
-9053 9691 0
-9053 818 0
-9691 -818 9053 0
-9054 9691 0
-9054 819 0
-9691 -819 9054 0
-9055 9691 0
-9055 820 0
-9691 -820 9055 0
-9056 9691 0
-9056 821 0
-9691 -821 9056 0
-9057 9691 0
-9057 822 0
-9691 -822 9057 0
-9058 9691 0
-9058 823 0
-9691 -823 9058 0
-9059 9691 0
-9059 824 0
-9691 -824 9059 0
-9060 9691 0
-9060 825 0
-9691 -825 9060 0
-9061 9691 0
-9061 826 0
-9691 -826 9061 0
-9062 9691 0
-9062 827 0
-9691 -827 9062 0
-9063 9692 0
-9063 682 0
-9692 -682 9063 0
-9064 9692 0
-9064 701 0
-9692 -701 9064 0
-9065 9692 0
-9065 719 0
-9692 -719 9065 0
-9066 9692 0
-9066 736 0
-9692 -736 9066 0
-9067 9692 0
-9067 752 0
-9692 -752 9067 0
-9068 9692 0
-9068 767 0
-9692 -767 9068 0
-9069 9692 0
-9069 781 0
-9692 -781 9069 0
-9070 9692 0
-9070 794 0
-9692 -794 9070 0
-9071 9692 0
-9071 806 0
-9692 -806 9071 0
-9072 9692 0
-9072 817 0
-9692 -817 9072 0
-9073 9692 0
-9073 828 0
-9692 -828 9073 0
-9074 9692 0
-9074 829 0
-9692 -829 9074 0
-9075 9692 0
-9075 830 0
-9692 -830 9075 0
-9076 9692 0
-9076 831 0
-9692 -831 9076 0
-9077 9692 0
-9077 832 0
-9692 -832 9077 0
-9078 9692 0
-9078 833 0
-9692 -833 9078 0
-9079 9692 0
-9079 834 0
-9692 -834 9079 0
-9080 9692 0
-9080 835 0
-9692 -835 9080 0
-9081 9692 0
-9081 836 0
-9692 -836 9081 0
-9082 9692 0
-9082 837 0
-9692 -837 9082 0
-9083 9693 0
-9083 683 0
-9693 -683 9083 0
-9084 9693 0
-9084 702 0
-9693 -702 9084 0
-9085 9693 0
-9085 720 0
-9693 -720 9085 0
-9086 9693 0
-9086 737 0
-9693 -737 9086 0
-9087 9693 0
-9087 753 0
-9693 -753 9087 0
-9088 9693 0
-9088 768 0
-9693 -768 9088 0
-9089 9693 0
-9089 782 0
-9693 -782 9089 0
-9090 9693 0
-9090 795 0
-9693 -795 9090 0
-9091 9693 0
-9091 807 0
-9693 -807 9091 0
-9092 9693 0
-9092 818 0
-9693 -818 9092 0
-9093 9693 0
-9093 828 0
-9693 -828 9093 0
-9094 9693 0
-9094 838 0
-9693 -838 9094 0
-9095 9693 0
-9095 839 0
-9693 -839 9095 0
-9096 9693 0
-9096 840 0
-9693 -840 9096 0
-9097 9693 0
-9097 841 0
-9693 -841 9097 0
-9098 9693 0
-9098 842 0
-9693 -842 9098 0
-9099 9693 0
-9099 843 0
-9693 -843 9099 0
-9100 9693 0
-9100 844 0
-9693 -844 9100 0
-9101 9693 0
-9101 845 0
-9693 -845 9101 0
-9102 9693 0
-9102 846 0
-9693 -846 9102 0
-9103 9694 0
-9103 684 0
-9694 -684 9103 0
-9104 9694 0
-9104 703 0
-9694 -703 9104 0
-9105 9694 0
-9105 721 0
-9694 -721 9105 0
-9106 9694 0
-9106 738 0
-9694 -738 9106 0
-9107 9694 0
-9107 754 0
-9694 -754 9107 0
-9108 9694 0
-9108 769 0
-9694 -769 9108 0
-9109 9694 0
-9109 783 0
-9694 -783 9109 0
-9110 9694 0
-9110 796 0
-9694 -796 9110 0
-9111 9694 0
-9111 808 0
-9694 -808 9111 0
-9112 9694 0
-9112 819 0
-9694 -819 9112 0
-9113 9694 0
-9113 829 0
-9694 -829 9113 0
-9114 9694 0
-9114 838 0
-9694 -838 9114 0
-9115 9694 0
-9115 847 0
-9694 -847 9115 0
-9116 9694 0
-9116 848 0
-9694 -848 9116 0
-9117 9694 0
-9117 849 0
-9694 -849 9117 0
-9118 9694 0
-9118 850 0
-9694 -850 9118 0
-9119 9694 0
-9119 851 0
-9694 -851 9119 0
-9120 9694 0
-9120 852 0
-9694 -852 9120 0
-9121 9694 0
-9121 853 0
-9694 -853 9121 0
-9122 9694 0
-9122 854 0
-9694 -854 9122 0
-9123 9695 0
-9123 685 0
-9695 -685 9123 0
-9124 9695 0
-9124 704 0
-9695 -704 9124 0
-9125 9695 0
-9125 722 0
-9695 -722 9125 0
-9126 9695 0
-9126 739 0
-9695 -739 9126 0
-9127 9695 0
-9127 755 0
-9695 -755 9127 0
-9128 9695 0
-9128 770 0
-9695 -770 9128 0
-9129 9695 0
-9129 784 0
-9695 -784 9129 0
-9130 9695 0
-9130 797 0
-9695 -797 9130 0
-9131 9695 0
-9131 809 0
-9695 -809 9131 0
-9132 9695 0
-9132 820 0
-9695 -820 9132 0
-9133 9695 0
-9133 830 0
-9695 -830 9133 0
-9134 9695 0
-9134 839 0
-9695 -839 9134 0
-9135 9695 0
-9135 847 0
-9695 -847 9135 0
-9136 9695 0
-9136 855 0
-9695 -855 9136 0
-9137 9695 0
-9137 856 0
-9695 -856 9137 0
-9138 9695 0
-9138 857 0
-9695 -857 9138 0
-9139 9695 0
-9139 858 0
-9695 -858 9139 0
-9140 9695 0
-9140 859 0
-9695 -859 9140 0
-9141 9695 0
-9141 860 0
-9695 -860 9141 0
-9142 9695 0
-9142 861 0
-9695 -861 9142 0
-9143 9696 0
-9143 686 0
-9696 -686 9143 0
-9144 9696 0
-9144 705 0
-9696 -705 9144 0
-9145 9696 0
-9145 723 0
-9696 -723 9145 0
-9146 9696 0
-9146 740 0
-9696 -740 9146 0
-9147 9696 0
-9147 756 0
-9696 -756 9147 0
-9148 9696 0
-9148 771 0
-9696 -771 9148 0
-9149 9696 0
-9149 785 0
-9696 -785 9149 0
-9150 9696 0
-9150 798 0
-9696 -798 9150 0
-9151 9696 0
-9151 810 0
-9696 -810 9151 0
-9152 9696 0
-9152 821 0
-9696 -821 9152 0
-9153 9696 0
-9153 831 0
-9696 -831 9153 0
-9154 9696 0
-9154 840 0
-9696 -840 9154 0
-9155 9696 0
-9155 848 0
-9696 -848 9155 0
-9156 9696 0
-9156 855 0
-9696 -855 9156 0
-9157 9696 0
-9157 862 0
-9696 -862 9157 0
-9158 9696 0
-9158 863 0
-9696 -863 9158 0
-9159 9696 0
-9159 864 0
-9696 -864 9159 0
-9160 9696 0
-9160 865 0
-9696 -865 9160 0
-9161 9696 0
-9161 866 0
-9696 -866 9161 0
-9162 9696 0
-9162 867 0
-9696 -867 9162 0
-9163 9697 0
-9163 687 0
-9697 -687 9163 0
-9164 9697 0
-9164 706 0
-9697 -706 9164 0
-9165 9697 0
-9165 724 0
-9697 -724 9165 0
-9166 9697 0
-9166 741 0
-9697 -741 9166 0
-9167 9697 0
-9167 757 0
-9697 -757 9167 0
-9168 9697 0
-9168 772 0
-9697 -772 9168 0
-9169 9697 0
-9169 786 0
-9697 -786 9169 0
-9170 9697 0
-9170 799 0
-9697 -799 9170 0
-9171 9697 0
-9171 811 0
-9697 -811 9171 0
-9172 9697 0
-9172 822 0
-9697 -822 9172 0
-9173 9697 0
-9173 832 0
-9697 -832 9173 0
-9174 9697 0
-9174 841 0
-9697 -841 9174 0
-9175 9697 0
-9175 849 0
-9697 -849 9175 0
-9176 9697 0
-9176 856 0
-9697 -856 9176 0
-9177 9697 0
-9177 862 0
-9697 -862 9177 0
-9178 9697 0
-9178 868 0
-9697 -868 9178 0
-9179 9697 0
-9179 869 0
-9697 -869 9179 0
-9180 9697 0
-9180 870 0
-9697 -870 9180 0
-9181 9697 0
-9181 871 0
-9697 -871 9181 0
-9182 9697 0
-9182 872 0
-9697 -872 9182 0
-9183 9698 0
-9183 688 0
-9698 -688 9183 0
-9184 9698 0
-9184 707 0
-9698 -707 9184 0
-9185 9698 0
-9185 725 0
-9698 -725 9185 0
-9186 9698 0
-9186 742 0
-9698 -742 9186 0
-9187 9698 0
-9187 758 0
-9698 -758 9187 0
-9188 9698 0
-9188 773 0
-9698 -773 9188 0
-9189 9698 0
-9189 787 0
-9698 -787 9189 0
-9190 9698 0
-9190 800 0
-9698 -800 9190 0
-9191 9698 0
-9191 812 0
-9698 -812 9191 0
-9192 9698 0
-9192 823 0
-9698 -823 9192 0
-9193 9698 0
-9193 833 0
-9698 -833 9193 0
-9194 9698 0
-9194 842 0
-9698 -842 9194 0
-9195 9698 0
-9195 850 0
-9698 -850 9195 0
-9196 9698 0
-9196 857 0
-9698 -857 9196 0
-9197 9698 0
-9197 863 0
-9698 -863 9197 0
-9198 9698 0
-9198 868 0
-9698 -868 9198 0
-9199 9698 0
-9199 873 0
-9698 -873 9199 0
-9200 9698 0
-9200 874 0
-9698 -874 9200 0
-9201 9698 0
-9201 875 0
-9698 -875 9201 0
-9202 9698 0
-9202 876 0
-9698 -876 9202 0
-9203 9699 0
-9203 689 0
-9699 -689 9203 0
-9204 9699 0
-9204 708 0
-9699 -708 9204 0
-9205 9699 0
-9205 726 0
-9699 -726 9205 0
-9206 9699 0
-9206 743 0
-9699 -743 9206 0
-9207 9699 0
-9207 759 0
-9699 -759 9207 0
-9208 9699 0
-9208 774 0
-9699 -774 9208 0
-9209 9699 0
-9209 788 0
-9699 -788 9209 0
-9210 9699 0
-9210 801 0
-9699 -801 9210 0
-9211 9699 0
-9211 813 0
-9699 -813 9211 0
-9212 9699 0
-9212 824 0
-9699 -824 9212 0
-9213 9699 0
-9213 834 0
-9699 -834 9213 0
-9214 9699 0
-9214 843 0
-9699 -843 9214 0
-9215 9699 0
-9215 851 0
-9699 -851 9215 0
-9216 9699 0
-9216 858 0
-9699 -858 9216 0
-9217 9699 0
-9217 864 0
-9699 -864 9217 0
-9218 9699 0
-9218 869 0
-9699 -869 9218 0
-9219 9699 0
-9219 873 0
-9699 -873 9219 0
-9220 9699 0
-9220 877 0
-9699 -877 9220 0
-9221 9699 0
-9221 878 0
-9699 -878 9221 0
-9222 9699 0
-9222 879 0
-9699 -879 9222 0
-9223 9700 0
-9223 690 0
-9700 -690 9223 0
-9224 9700 0
-9224 709 0
-9700 -709 9224 0
-9225 9700 0
-9225 727 0
-9700 -727 9225 0
-9226 9700 0
-9226 744 0
-9700 -744 9226 0
-9227 9700 0
-9227 760 0
-9700 -760 9227 0
-9228 9700 0
-9228 775 0
-9700 -775 9228 0
-9229 9700 0
-9229 789 0
-9700 -789 9229 0
-9230 9700 0
-9230 802 0
-9700 -802 9230 0
-9231 9700 0
-9231 814 0
-9700 -814 9231 0
-9232 9700 0
-9232 825 0
-9700 -825 9232 0
-9233 9700 0
-9233 835 0
-9700 -835 9233 0
-9234 9700 0
-9234 844 0
-9700 -844 9234 0
-9235 9700 0
-9235 852 0
-9700 -852 9235 0
-9236 9700 0
-9236 859 0
-9700 -859 9236 0
-9237 9700 0
-9237 865 0
-9700 -865 9237 0
-9238 9700 0
-9238 870 0
-9700 -870 9238 0
-9239 9700 0
-9239 874 0
-9700 -874 9239 0
-9240 9700 0
-9240 877 0
-9700 -877 9240 0
-9241 9700 0
-9241 880 0
-9700 -880 9241 0
-9242 9700 0
-9242 881 0
-9700 -881 9242 0
-9243 9701 0
-9243 691 0
-9701 -691 9243 0
-9244 9701 0
-9244 710 0
-9701 -710 9244 0
-9245 9701 0
-9245 728 0
-9701 -728 9245 0
-9246 9701 0
-9246 745 0
-9701 -745 9246 0
-9247 9701 0
-9247 761 0
-9701 -761 9247 0
-9248 9701 0
-9248 776 0
-9701 -776 9248 0
-9249 9701 0
-9249 790 0
-9701 -790 9249 0
-9250 9701 0
-9250 803 0
-9701 -803 9250 0
-9251 9701 0
-9251 815 0
-9701 -815 9251 0
-9252 9701 0
-9252 826 0
-9701 -826 9252 0
-9253 9701 0
-9253 836 0
-9701 -836 9253 0
-9254 9701 0
-9254 845 0
-9701 -845 9254 0
-9255 9701 0
-9255 853 0
-9701 -853 9255 0
-9256 9701 0
-9256 860 0
-9701 -860 9256 0
-9257 9701 0
-9257 866 0
-9701 -866 9257 0
-9258 9701 0
-9258 871 0
-9701 -871 9258 0
-9259 9701 0
-9259 875 0
-9701 -875 9259 0
-9260 9701 0
-9260 878 0
-9701 -878 9260 0
-9261 9701 0
-9261 880 0
-9701 -880 9261 0
-9262 9701 0
-9262 882 0
-9701 -882 9262 0
-9263 9702 0
-9263 692 0
-9702 -692 9263 0
-9264 9702 0
-9264 711 0
-9702 -711 9264 0
-9265 9702 0
-9265 729 0
-9702 -729 9265 0
-9266 9702 0
-9266 746 0
-9702 -746 9266 0
-9267 9702 0
-9267 762 0
-9702 -762 9267 0
-9268 9702 0
-9268 777 0
-9702 -777 9268 0
-9269 9702 0
-9269 791 0
-9702 -791 9269 0
-9270 9702 0
-9270 804 0
-9702 -804 9270 0
-9271 9702 0
-9271 816 0
-9702 -816 9271 0
-9272 9702 0
-9272 827 0
-9702 -827 9272 0
-9273 9702 0
-9273 837 0
-9702 -837 9273 0
-9274 9702 0
-9274 846 0
-9702 -846 9274 0
-9275 9702 0
-9275 854 0
-9702 -854 9275 0
-9276 9702 0
-9276 861 0
-9702 -861 9276 0
-9277 9702 0
-9277 867 0
-9702 -867 9277 0
-9278 9702 0
-9278 872 0
-9702 -872 9278 0
-9279 9702 0
-9279 876 0
-9702 -876 9279 0
-9280 9702 0
-9280 879 0
-9702 -879 9280 0
-9281 9702 0
-9281 881 0
-9702 -881 9281 0
-9282 9702 0
-9282 882 0
-9702 -882 9282 0
-9283 9304 0
-903 9304 0
-923 9304 0
-943 9304 0
-963 9304 0
-983 9304 0
-1003 9304 0
-1023 9304 0
-1043 9304 0
-1063 9304 0
-1083 9304 0
-1103 9304 0
-1123 9304 0
-1143 9304 0
-1163 9304 0
-1183 9304 0
-1203 9304 0
-1223 9304 0
-1243 9304 0
-1263 9304 0
-1283 9304 0
-9284 9305 0
-883 9305 0
-924 9305 0
-944 9305 0
-964 9305 0
-984 9305 0
-1004 9305 0
-1024 9305 0
-1044 9305 0
-1064 9305 0
-1084 9305 0
-1104 9305 0
-1124 9305 0
-1144 9305 0
-1164 9305 0
-1184 9305 0
-1204 9305 0
-1224 9305 0
-1244 9305 0
-1264 9305 0
-1284 9305 0
-9285 9306 0
-884 9306 0
-904 9306 0
-945 9306 0
-965 9306 0
-985 9306 0
-1005 9306 0
-1025 9306 0
-1045 9306 0
-1065 9306 0
-1085 9306 0
-1105 9306 0
-1125 9306 0
-1145 9306 0
-1165 9306 0
-1185 9306 0
-1205 9306 0
-1225 9306 0
-1245 9306 0
-1265 9306 0
-1285 9306 0
-9286 9307 0
-885 9307 0
-905 9307 0
-925 9307 0
-966 9307 0
-986 9307 0
-1006 9307 0
-1026 9307 0
-1046 9307 0
-1066 9307 0
-1086 9307 0
-1106 9307 0
-1126 9307 0
-1146 9307 0
-1166 9307 0
-1186 9307 0
-1206 9307 0
-1226 9307 0
-1246 9307 0
-1266 9307 0
-1286 9307 0
-9287 9308 0
-886 9308 0
-906 9308 0
-926 9308 0
-946 9308 0
-987 9308 0
-1007 9308 0
-1027 9308 0
-1047 9308 0
-1067 9308 0
-1087 9308 0
-1107 9308 0
-1127 9308 0
-1147 9308 0
-1167 9308 0
-1187 9308 0
-1207 9308 0
-1227 9308 0
-1247 9308 0
-1267 9308 0
-1287 9308 0
-9288 9309 0
-887 9309 0
-907 9309 0
-927 9309 0
-947 9309 0
-967 9309 0
-1008 9309 0
-1028 9309 0
-1048 9309 0
-1068 9309 0
-1088 9309 0
-1108 9309 0
-1128 9309 0
-1148 9309 0
-1168 9309 0
-1188 9309 0
-1208 9309 0
-1228 9309 0
-1248 9309 0
-1268 9309 0
-1288 9309 0
-9289 9310 0
-888 9310 0
-908 9310 0
-928 9310 0
-948 9310 0
-968 9310 0
-988 9310 0
-1029 9310 0
-1049 9310 0
-1069 9310 0
-1089 9310 0
-1109 9310 0
-1129 9310 0
-1149 9310 0
-1169 9310 0
-1189 9310 0
-1209 9310 0
-1229 9310 0
-1249 9310 0
-1269 9310 0
-1289 9310 0
-9290 9311 0
-889 9311 0
-909 9311 0
-929 9311 0
-949 9311 0
-969 9311 0
-989 9311 0
-1009 9311 0
-1050 9311 0
-1070 9311 0
-1090 9311 0
-1110 9311 0
-1130 9311 0
-1150 9311 0
-1170 9311 0
-1190 9311 0
-1210 9311 0
-1230 9311 0
-1250 9311 0
-1270 9311 0
-1290 9311 0
-9291 9312 0
-890 9312 0
-910 9312 0
-930 9312 0
-950 9312 0
-970 9312 0
-990 9312 0
-1010 9312 0
-1030 9312 0
-1071 9312 0
-1091 9312 0
-1111 9312 0
-1131 9312 0
-1151 9312 0
-1171 9312 0
-1191 9312 0
-1211 9312 0
-1231 9312 0
-1251 9312 0
-1271 9312 0
-1291 9312 0
-9292 9313 0
-891 9313 0
-911 9313 0
-931 9313 0
-951 9313 0
-971 9313 0
-991 9313 0
-1011 9313 0
-1031 9313 0
-1051 9313 0
-1092 9313 0
-1112 9313 0
-1132 9313 0
-1152 9313 0
-1172 9313 0
-1192 9313 0
-1212 9313 0
-1232 9313 0
-1252 9313 0
-1272 9313 0
-1292 9313 0
-9293 9314 0
-892 9314 0
-912 9314 0
-932 9314 0
-952 9314 0
-972 9314 0
-992 9314 0
-1012 9314 0
-1032 9314 0
-1052 9314 0
-1072 9314 0
-1113 9314 0
-1133 9314 0
-1153 9314 0
-1173 9314 0
-1193 9314 0
-1213 9314 0
-1233 9314 0
-1253 9314 0
-1273 9314 0
-1293 9314 0
-9294 9315 0
-893 9315 0
-913 9315 0
-933 9315 0
-953 9315 0
-973 9315 0
-993 9315 0
-1013 9315 0
-1033 9315 0
-1053 9315 0
-1073 9315 0
-1093 9315 0
-1134 9315 0
-1154 9315 0
-1174 9315 0
-1194 9315 0
-1214 9315 0
-1234 9315 0
-1254 9315 0
-1274 9315 0
-1294 9315 0
-9295 9316 0
-894 9316 0
-914 9316 0
-934 9316 0
-954 9316 0
-974 9316 0
-994 9316 0
-1014 9316 0
-1034 9316 0
-1054 9316 0
-1074 9316 0
-1094 9316 0
-1114 9316 0
-1155 9316 0
-1175 9316 0
-1195 9316 0
-1215 9316 0
-1235 9316 0
-1255 9316 0
-1275 9316 0
-1295 9316 0
-9296 9317 0
-895 9317 0
-915 9317 0
-935 9317 0
-955 9317 0
-975 9317 0
-995 9317 0
-1015 9317 0
-1035 9317 0
-1055 9317 0
-1075 9317 0
-1095 9317 0
-1115 9317 0
-1135 9317 0
-1176 9317 0
-1196 9317 0
-1216 9317 0
-1236 9317 0
-1256 9317 0
-1276 9317 0
-1296 9317 0
-9297 9318 0
-896 9318 0
-916 9318 0
-936 9318 0
-956 9318 0
-976 9318 0
-996 9318 0
-1016 9318 0
-1036 9318 0
-1056 9318 0
-1076 9318 0
-1096 9318 0
-1116 9318 0
-1136 9318 0
-1156 9318 0
-1197 9318 0
-1217 9318 0
-1237 9318 0
-1257 9318 0
-1277 9318 0
-1297 9318 0
-9298 9319 0
-897 9319 0
-917 9319 0
-937 9319 0
-957 9319 0
-977 9319 0
-997 9319 0
-1017 9319 0
-1037 9319 0
-1057 9319 0
-1077 9319 0
-1097 9319 0
-1117 9319 0
-1137 9319 0
-1157 9319 0
-1177 9319 0
-1218 9319 0
-1238 9319 0
-1258 9319 0
-1278 9319 0
-1298 9319 0
-9299 9320 0
-898 9320 0
-918 9320 0
-938 9320 0
-958 9320 0
-978 9320 0
-998 9320 0
-1018 9320 0
-1038 9320 0
-1058 9320 0
-1078 9320 0
-1098 9320 0
-1118 9320 0
-1138 9320 0
-1158 9320 0
-1178 9320 0
-1198 9320 0
-1239 9320 0
-1259 9320 0
-1279 9320 0
-1299 9320 0
-9300 9321 0
-899 9321 0
-919 9321 0
-939 9321 0
-959 9321 0
-979 9321 0
-999 9321 0
-1019 9321 0
-1039 9321 0
-1059 9321 0
-1079 9321 0
-1099 9321 0
-1119 9321 0
-1139 9321 0
-1159 9321 0
-1179 9321 0
-1199 9321 0
-1219 9321 0
-1260 9321 0
-1280 9321 0
-1300 9321 0
-9301 9322 0
-900 9322 0
-920 9322 0
-940 9322 0
-960 9322 0
-980 9322 0
-1000 9322 0
-1020 9322 0
-1040 9322 0
-1060 9322 0
-1080 9322 0
-1100 9322 0
-1120 9322 0
-1140 9322 0
-1160 9322 0
-1180 9322 0
-1200 9322 0
-1220 9322 0
-1240 9322 0
-1281 9322 0
-1301 9322 0
-9302 9323 0
-901 9323 0
-921 9323 0
-941 9323 0
-961 9323 0
-981 9323 0
-1001 9323 0
-1021 9323 0
-1041 9323 0
-1061 9323 0
-1081 9323 0
-1101 9323 0
-1121 9323 0
-1141 9323 0
-1161 9323 0
-1181 9323 0
-1201 9323 0
-1221 9323 0
-1241 9323 0
-1261 9323 0
-1302 9323 0
-9303 9324 0
-902 9324 0
-922 9324 0
-942 9324 0
-962 9324 0
-982 9324 0
-1002 9324 0
-1022 9324 0
-1042 9324 0
-1062 9324 0
-1082 9324 0
-1102 9324 0
-1122 9324 0
-1142 9324 0
-1162 9324 0
-1182 9324 0
-1202 9324 0
-1222 9324 0
-1242 9324 0
-1262 9324 0
-1282 9324 0
-9304 9325 0
-1323 9325 0
-1343 9325 0
-1363 9325 0
-1383 9325 0
-1403 9325 0
-1423 9325 0
-1443 9325 0
-1463 9325 0
-1483 9325 0
-1503 9325 0
-1523 9325 0
-1543 9325 0
-1563 9325 0
-1583 9325 0
-1603 9325 0
-1623 9325 0
-1643 9325 0
-1663 9325 0
-1683 9325 0
-1703 9325 0
-9305 9326 0
-1303 9326 0
-1344 9326 0
-1364 9326 0
-1384 9326 0
-1404 9326 0
-1424 9326 0
-1444 9326 0
-1464 9326 0
-1484 9326 0
-1504 9326 0
-1524 9326 0
-1544 9326 0
-1564 9326 0
-1584 9326 0
-1604 9326 0
-1624 9326 0
-1644 9326 0
-1664 9326 0
-1684 9326 0
-1704 9326 0
-9306 9327 0
-1304 9327 0
-1324 9327 0
-1365 9327 0
-1385 9327 0
-1405 9327 0
-1425 9327 0
-1445 9327 0
-1465 9327 0
-1485 9327 0
-1505 9327 0
-1525 9327 0
-1545 9327 0
-1565 9327 0
-1585 9327 0
-1605 9327 0
-1625 9327 0
-1645 9327 0
-1665 9327 0
-1685 9327 0
-1705 9327 0
-9307 9328 0
-1305 9328 0
-1325 9328 0
-1345 9328 0
-1386 9328 0
-1406 9328 0
-1426 9328 0
-1446 9328 0
-1466 9328 0
-1486 9328 0
-1506 9328 0
-1526 9328 0
-1546 9328 0
-1566 9328 0
-1586 9328 0
-1606 9328 0
-1626 9328 0
-1646 9328 0
-1666 9328 0
-1686 9328 0
-1706 9328 0
-9308 9329 0
-1306 9329 0
-1326 9329 0
-1346 9329 0
-1366 9329 0
-1407 9329 0
-1427 9329 0
-1447 9329 0
-1467 9329 0
-1487 9329 0
-1507 9329 0
-1527 9329 0
-1547 9329 0
-1567 9329 0
-1587 9329 0
-1607 9329 0
-1627 9329 0
-1647 9329 0
-1667 9329 0
-1687 9329 0
-1707 9329 0
-9309 9330 0
-1307 9330 0
-1327 9330 0
-1347 9330 0
-1367 9330 0
-1387 9330 0
-1428 9330 0
-1448 9330 0
-1468 9330 0
-1488 9330 0
-1508 9330 0
-1528 9330 0
-1548 9330 0
-1568 9330 0
-1588 9330 0
-1608 9330 0
-1628 9330 0
-1648 9330 0
-1668 9330 0
-1688 9330 0
-1708 9330 0
-9310 9331 0
-1308 9331 0
-1328 9331 0
-1348 9331 0
-1368 9331 0
-1388 9331 0
-1408 9331 0
-1449 9331 0
-1469 9331 0
-1489 9331 0
-1509 9331 0
-1529 9331 0
-1549 9331 0
-1569 9331 0
-1589 9331 0
-1609 9331 0
-1629 9331 0
-1649 9331 0
-1669 9331 0
-1689 9331 0
-1709 9331 0
-9311 9332 0
-1309 9332 0
-1329 9332 0
-1349 9332 0
-1369 9332 0
-1389 9332 0
-1409 9332 0
-1429 9332 0
-1470 9332 0
-1490 9332 0
-1510 9332 0
-1530 9332 0
-1550 9332 0
-1570 9332 0
-1590 9332 0
-1610 9332 0
-1630 9332 0
-1650 9332 0
-1670 9332 0
-1690 9332 0
-1710 9332 0
-9312 9333 0
-1310 9333 0
-1330 9333 0
-1350 9333 0
-1370 9333 0
-1390 9333 0
-1410 9333 0
-1430 9333 0
-1450 9333 0
-1491 9333 0
-1511 9333 0
-1531 9333 0
-1551 9333 0
-1571 9333 0
-1591 9333 0
-1611 9333 0
-1631 9333 0
-1651 9333 0
-1671 9333 0
-1691 9333 0
-1711 9333 0
-9313 9334 0
-1311 9334 0
-1331 9334 0
-1351 9334 0
-1371 9334 0
-1391 9334 0
-1411 9334 0
-1431 9334 0
-1451 9334 0
-1471 9334 0
-1512 9334 0
-1532 9334 0
-1552 9334 0
-1572 9334 0
-1592 9334 0
-1612 9334 0
-1632 9334 0
-1652 9334 0
-1672 9334 0
-1692 9334 0
-1712 9334 0
-9314 9335 0
-1312 9335 0
-1332 9335 0
-1352 9335 0
-1372 9335 0
-1392 9335 0
-1412 9335 0
-1432 9335 0
-1452 9335 0
-1472 9335 0
-1492 9335 0
-1533 9335 0
-1553 9335 0
-1573 9335 0
-1593 9335 0
-1613 9335 0
-1633 9335 0
-1653 9335 0
-1673 9335 0
-1693 9335 0
-1713 9335 0
-9315 9336 0
-1313 9336 0
-1333 9336 0
-1353 9336 0
-1373 9336 0
-1393 9336 0
-1413 9336 0
-1433 9336 0
-1453 9336 0
-1473 9336 0
-1493 9336 0
-1513 9336 0
-1554 9336 0
-1574 9336 0
-1594 9336 0
-1614 9336 0
-1634 9336 0
-1654 9336 0
-1674 9336 0
-1694 9336 0
-1714 9336 0
-9316 9337 0
-1314 9337 0
-1334 9337 0
-1354 9337 0
-1374 9337 0
-1394 9337 0
-1414 9337 0
-1434 9337 0
-1454 9337 0
-1474 9337 0
-1494 9337 0
-1514 9337 0
-1534 9337 0
-1575 9337 0
-1595 9337 0
-1615 9337 0
-1635 9337 0
-1655 9337 0
-1675 9337 0
-1695 9337 0
-1715 9337 0
-9317 9338 0
-1315 9338 0
-1335 9338 0
-1355 9338 0
-1375 9338 0
-1395 9338 0
-1415 9338 0
-1435 9338 0
-1455 9338 0
-1475 9338 0
-1495 9338 0
-1515 9338 0
-1535 9338 0
-1555 9338 0
-1596 9338 0
-1616 9338 0
-1636 9338 0
-1656 9338 0
-1676 9338 0
-1696 9338 0
-1716 9338 0
-9318 9339 0
-1316 9339 0
-1336 9339 0
-1356 9339 0
-1376 9339 0
-1396 9339 0
-1416 9339 0
-1436 9339 0
-1456 9339 0
-1476 9339 0
-1496 9339 0
-1516 9339 0
-1536 9339 0
-1556 9339 0
-1576 9339 0
-1617 9339 0
-1637 9339 0
-1657 9339 0
-1677 9339 0
-1697 9339 0
-1717 9339 0
-9319 9340 0
-1317 9340 0
-1337 9340 0
-1357 9340 0
-1377 9340 0
-1397 9340 0
-1417 9340 0
-1437 9340 0
-1457 9340 0
-1477 9340 0
-1497 9340 0
-1517 9340 0
-1537 9340 0
-1557 9340 0
-1577 9340 0
-1597 9340 0
-1638 9340 0
-1658 9340 0
-1678 9340 0
-1698 9340 0
-1718 9340 0
-9320 9341 0
-1318 9341 0
-1338 9341 0
-1358 9341 0
-1378 9341 0
-1398 9341 0
-1418 9341 0
-1438 9341 0
-1458 9341 0
-1478 9341 0
-1498 9341 0
-1518 9341 0
-1538 9341 0
-1558 9341 0
-1578 9341 0
-1598 9341 0
-1618 9341 0
-1659 9341 0
-1679 9341 0
-1699 9341 0
-1719 9341 0
-9321 9342 0
-1319 9342 0
-1339 9342 0
-1359 9342 0
-1379 9342 0
-1399 9342 0
-1419 9342 0
-1439 9342 0
-1459 9342 0
-1479 9342 0
-1499 9342 0
-1519 9342 0
-1539 9342 0
-1559 9342 0
-1579 9342 0
-1599 9342 0
-1619 9342 0
-1639 9342 0
-1680 9342 0
-1700 9342 0
-1720 9342 0
-9322 9343 0
-1320 9343 0
-1340 9343 0
-1360 9343 0
-1380 9343 0
-1400 9343 0
-1420 9343 0
-1440 9343 0
-1460 9343 0
-1480 9343 0
-1500 9343 0
-1520 9343 0
-1540 9343 0
-1560 9343 0
-1580 9343 0
-1600 9343 0
-1620 9343 0
-1640 9343 0
-1660 9343 0
-1701 9343 0
-1721 9343 0
-9323 9344 0
-1321 9344 0
-1341 9344 0
-1361 9344 0
-1381 9344 0
-1401 9344 0
-1421 9344 0
-1441 9344 0
-1461 9344 0
-1481 9344 0
-1501 9344 0
-1521 9344 0
-1541 9344 0
-1561 9344 0
-1581 9344 0
-1601 9344 0
-1621 9344 0
-1641 9344 0
-1661 9344 0
-1681 9344 0
-1722 9344 0
-9324 9345 0
-1322 9345 0
-1342 9345 0
-1362 9345 0
-1382 9345 0
-1402 9345 0
-1422 9345 0
-1442 9345 0
-1462 9345 0
-1482 9345 0
-1502 9345 0
-1522 9345 0
-1542 9345 0
-1562 9345 0
-1582 9345 0
-1602 9345 0
-1622 9345 0
-1642 9345 0
-1662 9345 0
-1682 9345 0
-1702 9345 0
-9325 9346 0
-1743 9346 0
-1763 9346 0
-1783 9346 0
-1803 9346 0
-1823 9346 0
-1843 9346 0
-1863 9346 0
-1883 9346 0
-1903 9346 0
-1923 9346 0
-1943 9346 0
-1963 9346 0
-1983 9346 0
-2003 9346 0
-2023 9346 0
-2043 9346 0
-2063 9346 0
-2083 9346 0
-2103 9346 0
-2123 9346 0
-9326 9347 0
-1723 9347 0
-1764 9347 0
-1784 9347 0
-1804 9347 0
-1824 9347 0
-1844 9347 0
-1864 9347 0
-1884 9347 0
-1904 9347 0
-1924 9347 0
-1944 9347 0
-1964 9347 0
-1984 9347 0
-2004 9347 0
-2024 9347 0
-2044 9347 0
-2064 9347 0
-2084 9347 0
-2104 9347 0
-2124 9347 0
-9327 9348 0
-1724 9348 0
-1744 9348 0
-1785 9348 0
-1805 9348 0
-1825 9348 0
-1845 9348 0
-1865 9348 0
-1885 9348 0
-1905 9348 0
-1925 9348 0
-1945 9348 0
-1965 9348 0
-1985 9348 0
-2005 9348 0
-2025 9348 0
-2045 9348 0
-2065 9348 0
-2085 9348 0
-2105 9348 0
-2125 9348 0
-9328 9349 0
-1725 9349 0
-1745 9349 0
-1765 9349 0
-1806 9349 0
-1826 9349 0
-1846 9349 0
-1866 9349 0
-1886 9349 0
-1906 9349 0
-1926 9349 0
-1946 9349 0
-1966 9349 0
-1986 9349 0
-2006 9349 0
-2026 9349 0
-2046 9349 0
-2066 9349 0
-2086 9349 0
-2106 9349 0
-2126 9349 0
-9329 9350 0
-1726 9350 0
-1746 9350 0
-1766 9350 0
-1786 9350 0
-1827 9350 0
-1847 9350 0
-1867 9350 0
-1887 9350 0
-1907 9350 0
-1927 9350 0
-1947 9350 0
-1967 9350 0
-1987 9350 0
-2007 9350 0
-2027 9350 0
-2047 9350 0
-2067 9350 0
-2087 9350 0
-2107 9350 0
-2127 9350 0
-9330 9351 0
-1727 9351 0
-1747 9351 0
-1767 9351 0
-1787 9351 0
-1807 9351 0
-1848 9351 0
-1868 9351 0
-1888 9351 0
-1908 9351 0
-1928 9351 0
-1948 9351 0
-1968 9351 0
-1988 9351 0
-2008 9351 0
-2028 9351 0
-2048 9351 0
-2068 9351 0
-2088 9351 0
-2108 9351 0
-2128 9351 0
-9331 9352 0
-1728 9352 0
-1748 9352 0
-1768 9352 0
-1788 9352 0
-1808 9352 0
-1828 9352 0
-1869 9352 0
-1889 9352 0
-1909 9352 0
-1929 9352 0
-1949 9352 0
-1969 9352 0
-1989 9352 0
-2009 9352 0
-2029 9352 0
-2049 9352 0
-2069 9352 0
-2089 9352 0
-2109 9352 0
-2129 9352 0
-9332 9353 0
-1729 9353 0
-1749 9353 0
-1769 9353 0
-1789 9353 0
-1809 9353 0
-1829 9353 0
-1849 9353 0
-1890 9353 0
-1910 9353 0
-1930 9353 0
-1950 9353 0
-1970 9353 0
-1990 9353 0
-2010 9353 0
-2030 9353 0
-2050 9353 0
-2070 9353 0
-2090 9353 0
-2110 9353 0
-2130 9353 0
-9333 9354 0
-1730 9354 0
-1750 9354 0
-1770 9354 0
-1790 9354 0
-1810 9354 0
-1830 9354 0
-1850 9354 0
-1870 9354 0
-1911 9354 0
-1931 9354 0
-1951 9354 0
-1971 9354 0
-1991 9354 0
-2011 9354 0
-2031 9354 0
-2051 9354 0
-2071 9354 0
-2091 9354 0
-2111 9354 0
-2131 9354 0
-9334 9355 0
-1731 9355 0
-1751 9355 0
-1771 9355 0
-1791 9355 0
-1811 9355 0
-1831 9355 0
-1851 9355 0
-1871 9355 0
-1891 9355 0
-1932 9355 0
-1952 9355 0
-1972 9355 0
-1992 9355 0
-2012 9355 0
-2032 9355 0
-2052 9355 0
-2072 9355 0
-2092 9355 0
-2112 9355 0
-2132 9355 0
-9335 9356 0
-1732 9356 0
-1752 9356 0
-1772 9356 0
-1792 9356 0
-1812 9356 0
-1832 9356 0
-1852 9356 0
-1872 9356 0
-1892 9356 0
-1912 9356 0
-1953 9356 0
-1973 9356 0
-1993 9356 0
-2013 9356 0
-2033 9356 0
-2053 9356 0
-2073 9356 0
-2093 9356 0
-2113 9356 0
-2133 9356 0
-9336 9357 0
-1733 9357 0
-1753 9357 0
-1773 9357 0
-1793 9357 0
-1813 9357 0
-1833 9357 0
-1853 9357 0
-1873 9357 0
-1893 9357 0
-1913 9357 0
-1933 9357 0
-1974 9357 0
-1994 9357 0
-2014 9357 0
-2034 9357 0
-2054 9357 0
-2074 9357 0
-2094 9357 0
-2114 9357 0
-2134 9357 0
-9337 9358 0
-1734 9358 0
-1754 9358 0
-1774 9358 0
-1794 9358 0
-1814 9358 0
-1834 9358 0
-1854 9358 0
-1874 9358 0
-1894 9358 0
-1914 9358 0
-1934 9358 0
-1954 9358 0
-1995 9358 0
-2015 9358 0
-2035 9358 0
-2055 9358 0
-2075 9358 0
-2095 9358 0
-2115 9358 0
-2135 9358 0
-9338 9359 0
-1735 9359 0
-1755 9359 0
-1775 9359 0
-1795 9359 0
-1815 9359 0
-1835 9359 0
-1855 9359 0
-1875 9359 0
-1895 9359 0
-1915 9359 0
-1935 9359 0
-1955 9359 0
-1975 9359 0
-2016 9359 0
-2036 9359 0
-2056 9359 0
-2076 9359 0
-2096 9359 0
-2116 9359 0
-2136 9359 0
-9339 9360 0
-1736 9360 0
-1756 9360 0
-1776 9360 0
-1796 9360 0
-1816 9360 0
-1836 9360 0
-1856 9360 0
-1876 9360 0
-1896 9360 0
-1916 9360 0
-1936 9360 0
-1956 9360 0
-1976 9360 0
-1996 9360 0
-2037 9360 0
-2057 9360 0
-2077 9360 0
-2097 9360 0
-2117 9360 0
-2137 9360 0
-9340 9361 0
-1737 9361 0
-1757 9361 0
-1777 9361 0
-1797 9361 0
-1817 9361 0
-1837 9361 0
-1857 9361 0
-1877 9361 0
-1897 9361 0
-1917 9361 0
-1937 9361 0
-1957 9361 0
-1977 9361 0
-1997 9361 0
-2017 9361 0
-2058 9361 0
-2078 9361 0
-2098 9361 0
-2118 9361 0
-2138 9361 0
-9341 9362 0
-1738 9362 0
-1758 9362 0
-1778 9362 0
-1798 9362 0
-1818 9362 0
-1838 9362 0
-1858 9362 0
-1878 9362 0
-1898 9362 0
-1918 9362 0
-1938 9362 0
-1958 9362 0
-1978 9362 0
-1998 9362 0
-2018 9362 0
-2038 9362 0
-2079 9362 0
-2099 9362 0
-2119 9362 0
-2139 9362 0
-9342 9363 0
-1739 9363 0
-1759 9363 0
-1779 9363 0
-1799 9363 0
-1819 9363 0
-1839 9363 0
-1859 9363 0
-1879 9363 0
-1899 9363 0
-1919 9363 0
-1939 9363 0
-1959 9363 0
-1979 9363 0
-1999 9363 0
-2019 9363 0
-2039 9363 0
-2059 9363 0
-2100 9363 0
-2120 9363 0
-2140 9363 0
-9343 9364 0
-1740 9364 0
-1760 9364 0
-1780 9364 0
-1800 9364 0
-1820 9364 0
-1840 9364 0
-1860 9364 0
-1880 9364 0
-1900 9364 0
-1920 9364 0
-1940 9364 0
-1960 9364 0
-1980 9364 0
-2000 9364 0
-2020 9364 0
-2040 9364 0
-2060 9364 0
-2080 9364 0
-2121 9364 0
-2141 9364 0
-9344 9365 0
-1741 9365 0
-1761 9365 0
-1781 9365 0
-1801 9365 0
-1821 9365 0
-1841 9365 0
-1861 9365 0
-1881 9365 0
-1901 9365 0
-1921 9365 0
-1941 9365 0
-1961 9365 0
-1981 9365 0
-2001 9365 0
-2021 9365 0
-2041 9365 0
-2061 9365 0
-2081 9365 0
-2101 9365 0
-2142 9365 0
-9345 9366 0
-1742 9366 0
-1762 9366 0
-1782 9366 0
-1802 9366 0
-1822 9366 0
-1842 9366 0
-1862 9366 0
-1882 9366 0
-1902 9366 0
-1922 9366 0
-1942 9366 0
-1962 9366 0
-1982 9366 0
-2002 9366 0
-2022 9366 0
-2042 9366 0
-2062 9366 0
-2082 9366 0
-2102 9366 0
-2122 9366 0
-9346 9367 0
-2163 9367 0
-2183 9367 0
-2203 9367 0
-2223 9367 0
-2243 9367 0
-2263 9367 0
-2283 9367 0
-2303 9367 0
-2323 9367 0
-2343 9367 0
-2363 9367 0
-2383 9367 0
-2403 9367 0
-2423 9367 0
-2443 9367 0
-2463 9367 0
-2483 9367 0
-2503 9367 0
-2523 9367 0
-2543 9367 0
-9347 9368 0
-2143 9368 0
-2184 9368 0
-2204 9368 0
-2224 9368 0
-2244 9368 0
-2264 9368 0
-2284 9368 0
-2304 9368 0
-2324 9368 0
-2344 9368 0
-2364 9368 0
-2384 9368 0
-2404 9368 0
-2424 9368 0
-2444 9368 0
-2464 9368 0
-2484 9368 0
-2504 9368 0
-2524 9368 0
-2544 9368 0
-9348 9369 0
-2144 9369 0
-2164 9369 0
-2205 9369 0
-2225 9369 0
-2245 9369 0
-2265 9369 0
-2285 9369 0
-2305 9369 0
-2325 9369 0
-2345 9369 0
-2365 9369 0
-2385 9369 0
-2405 9369 0
-2425 9369 0
-2445 9369 0
-2465 9369 0
-2485 9369 0
-2505 9369 0
-2525 9369 0
-2545 9369 0
-9349 9370 0
-2145 9370 0
-2165 9370 0
-2185 9370 0
-2226 9370 0
-2246 9370 0
-2266 9370 0
-2286 9370 0
-2306 9370 0
-2326 9370 0
-2346 9370 0
-2366 9370 0
-2386 9370 0
-2406 9370 0
-2426 9370 0
-2446 9370 0
-2466 9370 0
-2486 9370 0
-2506 9370 0
-2526 9370 0
-2546 9370 0
-9350 9371 0
-2146 9371 0
-2166 9371 0
-2186 9371 0
-2206 9371 0
-2247 9371 0
-2267 9371 0
-2287 9371 0
-2307 9371 0
-2327 9371 0
-2347 9371 0
-2367 9371 0
-2387 9371 0
-2407 9371 0
-2427 9371 0
-2447 9371 0
-2467 9371 0
-2487 9371 0
-2507 9371 0
-2527 9371 0
-2547 9371 0
-9351 9372 0
-2147 9372 0
-2167 9372 0
-2187 9372 0
-2207 9372 0
-2227 9372 0
-2268 9372 0
-2288 9372 0
-2308 9372 0
-2328 9372 0
-2348 9372 0
-2368 9372 0
-2388 9372 0
-2408 9372 0
-2428 9372 0
-2448 9372 0
-2468 9372 0
-2488 9372 0
-2508 9372 0
-2528 9372 0
-2548 9372 0
-9352 9373 0
-2148 9373 0
-2168 9373 0
-2188 9373 0
-2208 9373 0
-2228 9373 0
-2248 9373 0
-2289 9373 0
-2309 9373 0
-2329 9373 0
-2349 9373 0
-2369 9373 0
-2389 9373 0
-2409 9373 0
-2429 9373 0
-2449 9373 0
-2469 9373 0
-2489 9373 0
-2509 9373 0
-2529 9373 0
-2549 9373 0
-9353 9374 0
-2149 9374 0
-2169 9374 0
-2189 9374 0
-2209 9374 0
-2229 9374 0
-2249 9374 0
-2269 9374 0
-2310 9374 0
-2330 9374 0
-2350 9374 0
-2370 9374 0
-2390 9374 0
-2410 9374 0
-2430 9374 0
-2450 9374 0
-2470 9374 0
-2490 9374 0
-2510 9374 0
-2530 9374 0
-2550 9374 0
-9354 9375 0
-2150 9375 0
-2170 9375 0
-2190 9375 0
-2210 9375 0
-2230 9375 0
-2250 9375 0
-2270 9375 0
-2290 9375 0
-2331 9375 0
-2351 9375 0
-2371 9375 0
-2391 9375 0
-2411 9375 0
-2431 9375 0
-2451 9375 0
-2471 9375 0
-2491 9375 0
-2511 9375 0
-2531 9375 0
-2551 9375 0
-9355 9376 0
-2151 9376 0
-2171 9376 0
-2191 9376 0
-2211 9376 0
-2231 9376 0
-2251 9376 0
-2271 9376 0
-2291 9376 0
-2311 9376 0
-2352 9376 0
-2372 9376 0
-2392 9376 0
-2412 9376 0
-2432 9376 0
-2452 9376 0
-2472 9376 0
-2492 9376 0
-2512 9376 0
-2532 9376 0
-2552 9376 0
-9356 9377 0
-2152 9377 0
-2172 9377 0
-2192 9377 0
-2212 9377 0
-2232 9377 0
-2252 9377 0
-2272 9377 0
-2292 9377 0
-2312 9377 0
-2332 9377 0
-2373 9377 0
-2393 9377 0
-2413 9377 0
-2433 9377 0
-2453 9377 0
-2473 9377 0
-2493 9377 0
-2513 9377 0
-2533 9377 0
-2553 9377 0
-9357 9378 0
-2153 9378 0
-2173 9378 0
-2193 9378 0
-2213 9378 0
-2233 9378 0
-2253 9378 0
-2273 9378 0
-2293 9378 0
-2313 9378 0
-2333 9378 0
-2353 9378 0
-2394 9378 0
-2414 9378 0
-2434 9378 0
-2454 9378 0
-2474 9378 0
-2494 9378 0
-2514 9378 0
-2534 9378 0
-2554 9378 0
-9358 9379 0
-2154 9379 0
-2174 9379 0
-2194 9379 0
-2214 9379 0
-2234 9379 0
-2254 9379 0
-2274 9379 0
-2294 9379 0
-2314 9379 0
-2334 9379 0
-2354 9379 0
-2374 9379 0
-2415 9379 0
-2435 9379 0
-2455 9379 0
-2475 9379 0
-2495 9379 0
-2515 9379 0
-2535 9379 0
-2555 9379 0
-9359 9380 0
-2155 9380 0
-2175 9380 0
-2195 9380 0
-2215 9380 0
-2235 9380 0
-2255 9380 0
-2275 9380 0
-2295 9380 0
-2315 9380 0
-2335 9380 0
-2355 9380 0
-2375 9380 0
-2395 9380 0
-2436 9380 0
-2456 9380 0
-2476 9380 0
-2496 9380 0
-2516 9380 0
-2536 9380 0
-2556 9380 0
-9360 9381 0
-2156 9381 0
-2176 9381 0
-2196 9381 0
-2216 9381 0
-2236 9381 0
-2256 9381 0
-2276 9381 0
-2296 9381 0
-2316 9381 0
-2336 9381 0
-2356 9381 0
-2376 9381 0
-2396 9381 0
-2416 9381 0
-2457 9381 0
-2477 9381 0
-2497 9381 0
-2517 9381 0
-2537 9381 0
-2557 9381 0
-9361 9382 0
-2157 9382 0
-2177 9382 0
-2197 9382 0
-2217 9382 0
-2237 9382 0
-2257 9382 0
-2277 9382 0
-2297 9382 0
-2317 9382 0
-2337 9382 0
-2357 9382 0
-2377 9382 0
-2397 9382 0
-2417 9382 0
-2437 9382 0
-2478 9382 0
-2498 9382 0
-2518 9382 0
-2538 9382 0
-2558 9382 0
-9362 9383 0
-2158 9383 0
-2178 9383 0
-2198 9383 0
-2218 9383 0
-2238 9383 0
-2258 9383 0
-2278 9383 0
-2298 9383 0
-2318 9383 0
-2338 9383 0
-2358 9383 0
-2378 9383 0
-2398 9383 0
-2418 9383 0
-2438 9383 0
-2458 9383 0
-2499 9383 0
-2519 9383 0
-2539 9383 0
-2559 9383 0
-9363 9384 0
-2159 9384 0
-2179 9384 0
-2199 9384 0
-2219 9384 0
-2239 9384 0
-2259 9384 0
-2279 9384 0
-2299 9384 0
-2319 9384 0
-2339 9384 0
-2359 9384 0
-2379 9384 0
-2399 9384 0
-2419 9384 0
-2439 9384 0
-2459 9384 0
-2479 9384 0
-2520 9384 0
-2540 9384 0
-2560 9384 0
-9364 9385 0
-2160 9385 0
-2180 9385 0
-2200 9385 0
-2220 9385 0
-2240 9385 0
-2260 9385 0
-2280 9385 0
-2300 9385 0
-2320 9385 0
-2340 9385 0
-2360 9385 0
-2380 9385 0
-2400 9385 0
-2420 9385 0
-2440 9385 0
-2460 9385 0
-2480 9385 0
-2500 9385 0
-2541 9385 0
-2561 9385 0
-9365 9386 0
-2161 9386 0
-2181 9386 0
-2201 9386 0
-2221 9386 0
-2241 9386 0
-2261 9386 0
-2281 9386 0
-2301 9386 0
-2321 9386 0
-2341 9386 0
-2361 9386 0
-2381 9386 0
-2401 9386 0
-2421 9386 0
-2441 9386 0
-2461 9386 0
-2481 9386 0
-2501 9386 0
-2521 9386 0
-2562 9386 0
-9366 9387 0
-2162 9387 0
-2182 9387 0
-2202 9387 0
-2222 9387 0
-2242 9387 0
-2262 9387 0
-2282 9387 0
-2302 9387 0
-2322 9387 0
-2342 9387 0
-2362 9387 0
-2382 9387 0
-2402 9387 0
-2422 9387 0
-2442 9387 0
-2462 9387 0
-2482 9387 0
-2502 9387 0
-2522 9387 0
-2542 9387 0
-9367 9388 0
-2583 9388 0
-2603 9388 0
-2623 9388 0
-2643 9388 0
-2663 9388 0
-2683 9388 0
-2703 9388 0
-2723 9388 0
-2743 9388 0
-2763 9388 0
-2783 9388 0
-2803 9388 0
-2823 9388 0
-2843 9388 0
-2863 9388 0
-2883 9388 0
-2903 9388 0
-2923 9388 0
-2943 9388 0
-2963 9388 0
-9368 9389 0
-2563 9389 0
-2604 9389 0
-2624 9389 0
-2644 9389 0
-2664 9389 0
-2684 9389 0
-2704 9389 0
-2724 9389 0
-2744 9389 0
-2764 9389 0
-2784 9389 0
-2804 9389 0
-2824 9389 0
-2844 9389 0
-2864 9389 0
-2884 9389 0
-2904 9389 0
-2924 9389 0
-2944 9389 0
-2964 9389 0
-9369 9390 0
-2564 9390 0
-2584 9390 0
-2625 9390 0
-2645 9390 0
-2665 9390 0
-2685 9390 0
-2705 9390 0
-2725 9390 0
-2745 9390 0
-2765 9390 0
-2785 9390 0
-2805 9390 0
-2825 9390 0
-2845 9390 0
-2865 9390 0
-2885 9390 0
-2905 9390 0
-2925 9390 0
-2945 9390 0
-2965 9390 0
-9370 9391 0
-2565 9391 0
-2585 9391 0
-2605 9391 0
-2646 9391 0
-2666 9391 0
-2686 9391 0
-2706 9391 0
-2726 9391 0
-2746 9391 0
-2766 9391 0
-2786 9391 0
-2806 9391 0
-2826 9391 0
-2846 9391 0
-2866 9391 0
-2886 9391 0
-2906 9391 0
-2926 9391 0
-2946 9391 0
-2966 9391 0
-9371 9392 0
-2566 9392 0
-2586 9392 0
-2606 9392 0
-2626 9392 0
-2667 9392 0
-2687 9392 0
-2707 9392 0
-2727 9392 0
-2747 9392 0
-2767 9392 0
-2787 9392 0
-2807 9392 0
-2827 9392 0
-2847 9392 0
-2867 9392 0
-2887 9392 0
-2907 9392 0
-2927 9392 0
-2947 9392 0
-2967 9392 0
-9372 9393 0
-2567 9393 0
-2587 9393 0
-2607 9393 0
-2627 9393 0
-2647 9393 0
-2688 9393 0
-2708 9393 0
-2728 9393 0
-2748 9393 0
-2768 9393 0
-2788 9393 0
-2808 9393 0
-2828 9393 0
-2848 9393 0
-2868 9393 0
-2888 9393 0
-2908 9393 0
-2928 9393 0
-2948 9393 0
-2968 9393 0
-9373 9394 0
-2568 9394 0
-2588 9394 0
-2608 9394 0
-2628 9394 0
-2648 9394 0
-2668 9394 0
-2709 9394 0
-2729 9394 0
-2749 9394 0
-2769 9394 0
-2789 9394 0
-2809 9394 0
-2829 9394 0
-2849 9394 0
-2869 9394 0
-2889 9394 0
-2909 9394 0
-2929 9394 0
-2949 9394 0
-2969 9394 0
-9374 9395 0
-2569 9395 0
-2589 9395 0
-2609 9395 0
-2629 9395 0
-2649 9395 0
-2669 9395 0
-2689 9395 0
-2730 9395 0
-2750 9395 0
-2770 9395 0
-2790 9395 0
-2810 9395 0
-2830 9395 0
-2850 9395 0
-2870 9395 0
-2890 9395 0
-2910 9395 0
-2930 9395 0
-2950 9395 0
-2970 9395 0
-9375 9396 0
-2570 9396 0
-2590 9396 0
-2610 9396 0
-2630 9396 0
-2650 9396 0
-2670 9396 0
-2690 9396 0
-2710 9396 0
-2751 9396 0
-2771 9396 0
-2791 9396 0
-2811 9396 0
-2831 9396 0
-2851 9396 0
-2871 9396 0
-2891 9396 0
-2911 9396 0
-2931 9396 0
-2951 9396 0
-2971 9396 0
-9376 9397 0
-2571 9397 0
-2591 9397 0
-2611 9397 0
-2631 9397 0
-2651 9397 0
-2671 9397 0
-2691 9397 0
-2711 9397 0
-2731 9397 0
-2772 9397 0
-2792 9397 0
-2812 9397 0
-2832 9397 0
-2852 9397 0
-2872 9397 0
-2892 9397 0
-2912 9397 0
-2932 9397 0
-2952 9397 0
-2972 9397 0
-9377 9398 0
-2572 9398 0
-2592 9398 0
-2612 9398 0
-2632 9398 0
-2652 9398 0
-2672 9398 0
-2692 9398 0
-2712 9398 0
-2732 9398 0
-2752 9398 0
-2793 9398 0
-2813 9398 0
-2833 9398 0
-2853 9398 0
-2873 9398 0
-2893 9398 0
-2913 9398 0
-2933 9398 0
-2953 9398 0
-2973 9398 0
-9378 9399 0
-2573 9399 0
-2593 9399 0
-2613 9399 0
-2633 9399 0
-2653 9399 0
-2673 9399 0
-2693 9399 0
-2713 9399 0
-2733 9399 0
-2753 9399 0
-2773 9399 0
-2814 9399 0
-2834 9399 0
-2854 9399 0
-2874 9399 0
-2894 9399 0
-2914 9399 0
-2934 9399 0
-2954 9399 0
-2974 9399 0
-9379 9400 0
-2574 9400 0
-2594 9400 0
-2614 9400 0
-2634 9400 0
-2654 9400 0
-2674 9400 0
-2694 9400 0
-2714 9400 0
-2734 9400 0
-2754 9400 0
-2774 9400 0
-2794 9400 0
-2835 9400 0
-2855 9400 0
-2875 9400 0
-2895 9400 0
-2915 9400 0
-2935 9400 0
-2955 9400 0
-2975 9400 0
-9380 9401 0
-2575 9401 0
-2595 9401 0
-2615 9401 0
-2635 9401 0
-2655 9401 0
-2675 9401 0
-2695 9401 0
-2715 9401 0
-2735 9401 0
-2755 9401 0
-2775 9401 0
-2795 9401 0
-2815 9401 0
-2856 9401 0
-2876 9401 0
-2896 9401 0
-2916 9401 0
-2936 9401 0
-2956 9401 0
-2976 9401 0
-9381 9402 0
-2576 9402 0
-2596 9402 0
-2616 9402 0
-2636 9402 0
-2656 9402 0
-2676 9402 0
-2696 9402 0
-2716 9402 0
-2736 9402 0
-2756 9402 0
-2776 9402 0
-2796 9402 0
-2816 9402 0
-2836 9402 0
-2877 9402 0
-2897 9402 0
-2917 9402 0
-2937 9402 0
-2957 9402 0
-2977 9402 0
-9382 9403 0
-2577 9403 0
-2597 9403 0
-2617 9403 0
-2637 9403 0
-2657 9403 0
-2677 9403 0
-2697 9403 0
-2717 9403 0
-2737 9403 0
-2757 9403 0
-2777 9403 0
-2797 9403 0
-2817 9403 0
-2837 9403 0
-2857 9403 0
-2898 9403 0
-2918 9403 0
-2938 9403 0
-2958 9403 0
-2978 9403 0
-9383 9404 0
-2578 9404 0
-2598 9404 0
-2618 9404 0
-2638 9404 0
-2658 9404 0
-2678 9404 0
-2698 9404 0
-2718 9404 0
-2738 9404 0
-2758 9404 0
-2778 9404 0
-2798 9404 0
-2818 9404 0
-2838 9404 0
-2858 9404 0
-2878 9404 0
-2919 9404 0
-2939 9404 0
-2959 9404 0
-2979 9404 0
-9384 9405 0
-2579 9405 0
-2599 9405 0
-2619 9405 0
-2639 9405 0
-2659 9405 0
-2679 9405 0
-2699 9405 0
-2719 9405 0
-2739 9405 0
-2759 9405 0
-2779 9405 0
-2799 9405 0
-2819 9405 0
-2839 9405 0
-2859 9405 0
-2879 9405 0
-2899 9405 0
-2940 9405 0
-2960 9405 0
-2980 9405 0
-9385 9406 0
-2580 9406 0
-2600 9406 0
-2620 9406 0
-2640 9406 0
-2660 9406 0
-2680 9406 0
-2700 9406 0
-2720 9406 0
-2740 9406 0
-2760 9406 0
-2780 9406 0
-2800 9406 0
-2820 9406 0
-2840 9406 0
-2860 9406 0
-2880 9406 0
-2900 9406 0
-2920 9406 0
-2961 9406 0
-2981 9406 0
-9386 9407 0
-2581 9407 0
-2601 9407 0
-2621 9407 0
-2641 9407 0
-2661 9407 0
-2681 9407 0
-2701 9407 0
-2721 9407 0
-2741 9407 0
-2761 9407 0
-2781 9407 0
-2801 9407 0
-2821 9407 0
-2841 9407 0
-2861 9407 0
-2881 9407 0
-2901 9407 0
-2921 9407 0
-2941 9407 0
-2982 9407 0
-9387 9408 0
-2582 9408 0
-2602 9408 0
-2622 9408 0
-2642 9408 0
-2662 9408 0
-2682 9408 0
-2702 9408 0
-2722 9408 0
-2742 9408 0
-2762 9408 0
-2782 9408 0
-2802 9408 0
-2822 9408 0
-2842 9408 0
-2862 9408 0
-2882 9408 0
-2902 9408 0
-2922 9408 0
-2942 9408 0
-2962 9408 0
-9388 9409 0
-3003 9409 0
-3023 9409 0
-3043 9409 0
-3063 9409 0
-3083 9409 0
-3103 9409 0
-3123 9409 0
-3143 9409 0
-3163 9409 0
-3183 9409 0
-3203 9409 0
-3223 9409 0
-3243 9409 0
-3263 9409 0
-3283 9409 0
-3303 9409 0
-3323 9409 0
-3343 9409 0
-3363 9409 0
-3383 9409 0
-9389 9410 0
-2983 9410 0
-3024 9410 0
-3044 9410 0
-3064 9410 0
-3084 9410 0
-3104 9410 0
-3124 9410 0
-3144 9410 0
-3164 9410 0
-3184 9410 0
-3204 9410 0
-3224 9410 0
-3244 9410 0
-3264 9410 0
-3284 9410 0
-3304 9410 0
-3324 9410 0
-3344 9410 0
-3364 9410 0
-3384 9410 0
-9390 9411 0
-2984 9411 0
-3004 9411 0
-3045 9411 0
-3065 9411 0
-3085 9411 0
-3105 9411 0
-3125 9411 0
-3145 9411 0
-3165 9411 0
-3185 9411 0
-3205 9411 0
-3225 9411 0
-3245 9411 0
-3265 9411 0
-3285 9411 0
-3305 9411 0
-3325 9411 0
-3345 9411 0
-3365 9411 0
-3385 9411 0
-9391 9412 0
-2985 9412 0
-3005 9412 0
-3025 9412 0
-3066 9412 0
-3086 9412 0
-3106 9412 0
-3126 9412 0
-3146 9412 0
-3166 9412 0
-3186 9412 0
-3206 9412 0
-3226 9412 0
-3246 9412 0
-3266 9412 0
-3286 9412 0
-3306 9412 0
-3326 9412 0
-3346 9412 0
-3366 9412 0
-3386 9412 0
-9392 9413 0
-2986 9413 0
-3006 9413 0
-3026 9413 0
-3046 9413 0
-3087 9413 0
-3107 9413 0
-3127 9413 0
-3147 9413 0
-3167 9413 0
-3187 9413 0
-3207 9413 0
-3227 9413 0
-3247 9413 0
-3267 9413 0
-3287 9413 0
-3307 9413 0
-3327 9413 0
-3347 9413 0
-3367 9413 0
-3387 9413 0
-9393 9414 0
-2987 9414 0
-3007 9414 0
-3027 9414 0
-3047 9414 0
-3067 9414 0
-3108 9414 0
-3128 9414 0
-3148 9414 0
-3168 9414 0
-3188 9414 0
-3208 9414 0
-3228 9414 0
-3248 9414 0
-3268 9414 0
-3288 9414 0
-3308 9414 0
-3328 9414 0
-3348 9414 0
-3368 9414 0
-3388 9414 0
-9394 9415 0
-2988 9415 0
-3008 9415 0
-3028 9415 0
-3048 9415 0
-3068 9415 0
-3088 9415 0
-3129 9415 0
-3149 9415 0
-3169 9415 0
-3189 9415 0
-3209 9415 0
-3229 9415 0
-3249 9415 0
-3269 9415 0
-3289 9415 0
-3309 9415 0
-3329 9415 0
-3349 9415 0
-3369 9415 0
-3389 9415 0
-9395 9416 0
-2989 9416 0
-3009 9416 0
-3029 9416 0
-3049 9416 0
-3069 9416 0
-3089 9416 0
-3109 9416 0
-3150 9416 0
-3170 9416 0
-3190 9416 0
-3210 9416 0
-3230 9416 0
-3250 9416 0
-3270 9416 0
-3290 9416 0
-3310 9416 0
-3330 9416 0
-3350 9416 0
-3370 9416 0
-3390 9416 0
-9396 9417 0
-2990 9417 0
-3010 9417 0
-3030 9417 0
-3050 9417 0
-3070 9417 0
-3090 9417 0
-3110 9417 0
-3130 9417 0
-3171 9417 0
-3191 9417 0
-3211 9417 0
-3231 9417 0
-3251 9417 0
-3271 9417 0
-3291 9417 0
-3311 9417 0
-3331 9417 0
-3351 9417 0
-3371 9417 0
-3391 9417 0
-9397 9418 0
-2991 9418 0
-3011 9418 0
-3031 9418 0
-3051 9418 0
-3071 9418 0
-3091 9418 0
-3111 9418 0
-3131 9418 0
-3151 9418 0
-3192 9418 0
-3212 9418 0
-3232 9418 0
-3252 9418 0
-3272 9418 0
-3292 9418 0
-3312 9418 0
-3332 9418 0
-3352 9418 0
-3372 9418 0
-3392 9418 0
-9398 9419 0
-2992 9419 0
-3012 9419 0
-3032 9419 0
-3052 9419 0
-3072 9419 0
-3092 9419 0
-3112 9419 0
-3132 9419 0
-3152 9419 0
-3172 9419 0
-3213 9419 0
-3233 9419 0
-3253 9419 0
-3273 9419 0
-3293 9419 0
-3313 9419 0
-3333 9419 0
-3353 9419 0
-3373 9419 0
-3393 9419 0
-9399 9420 0
-2993 9420 0
-3013 9420 0
-3033 9420 0
-3053 9420 0
-3073 9420 0
-3093 9420 0
-3113 9420 0
-3133 9420 0
-3153 9420 0
-3173 9420 0
-3193 9420 0
-3234 9420 0
-3254 9420 0
-3274 9420 0
-3294 9420 0
-3314 9420 0
-3334 9420 0
-3354 9420 0
-3374 9420 0
-3394 9420 0
-9400 9421 0
-2994 9421 0
-3014 9421 0
-3034 9421 0
-3054 9421 0
-3074 9421 0
-3094 9421 0
-3114 9421 0
-3134 9421 0
-3154 9421 0
-3174 9421 0
-3194 9421 0
-3214 9421 0
-3255 9421 0
-3275 9421 0
-3295 9421 0
-3315 9421 0
-3335 9421 0
-3355 9421 0
-3375 9421 0
-3395 9421 0
-9401 9422 0
-2995 9422 0
-3015 9422 0
-3035 9422 0
-3055 9422 0
-3075 9422 0
-3095 9422 0
-3115 9422 0
-3135 9422 0
-3155 9422 0
-3175 9422 0
-3195 9422 0
-3215 9422 0
-3235 9422 0
-3276 9422 0
-3296 9422 0
-3316 9422 0
-3336 9422 0
-3356 9422 0
-3376 9422 0
-3396 9422 0
-9402 9423 0
-2996 9423 0
-3016 9423 0
-3036 9423 0
-3056 9423 0
-3076 9423 0
-3096 9423 0
-3116 9423 0
-3136 9423 0
-3156 9423 0
-3176 9423 0
-3196 9423 0
-3216 9423 0
-3236 9423 0
-3256 9423 0
-3297 9423 0
-3317 9423 0
-3337 9423 0
-3357 9423 0
-3377 9423 0
-3397 9423 0
-9403 9424 0
-2997 9424 0
-3017 9424 0
-3037 9424 0
-3057 9424 0
-3077 9424 0
-3097 9424 0
-3117 9424 0
-3137 9424 0
-3157 9424 0
-3177 9424 0
-3197 9424 0
-3217 9424 0
-3237 9424 0
-3257 9424 0
-3277 9424 0
-3318 9424 0
-3338 9424 0
-3358 9424 0
-3378 9424 0
-3398 9424 0
-9404 9425 0
-2998 9425 0
-3018 9425 0
-3038 9425 0
-3058 9425 0
-3078 9425 0
-3098 9425 0
-3118 9425 0
-3138 9425 0
-3158 9425 0
-3178 9425 0
-3198 9425 0
-3218 9425 0
-3238 9425 0
-3258 9425 0
-3278 9425 0
-3298 9425 0
-3339 9425 0
-3359 9425 0
-3379 9425 0
-3399 9425 0
-9405 9426 0
-2999 9426 0
-3019 9426 0
-3039 9426 0
-3059 9426 0
-3079 9426 0
-3099 9426 0
-3119 9426 0
-3139 9426 0
-3159 9426 0
-3179 9426 0
-3199 9426 0
-3219 9426 0
-3239 9426 0
-3259 9426 0
-3279 9426 0
-3299 9426 0
-3319 9426 0
-3360 9426 0
-3380 9426 0
-3400 9426 0
-9406 9427 0
-3000 9427 0
-3020 9427 0
-3040 9427 0
-3060 9427 0
-3080 9427 0
-3100 9427 0
-3120 9427 0
-3140 9427 0
-3160 9427 0
-3180 9427 0
-3200 9427 0
-3220 9427 0
-3240 9427 0
-3260 9427 0
-3280 9427 0
-3300 9427 0
-3320 9427 0
-3340 9427 0
-3381 9427 0
-3401 9427 0
-9407 9428 0
-3001 9428 0
-3021 9428 0
-3041 9428 0
-3061 9428 0
-3081 9428 0
-3101 9428 0
-3121 9428 0
-3141 9428 0
-3161 9428 0
-3181 9428 0
-3201 9428 0
-3221 9428 0
-3241 9428 0
-3261 9428 0
-3281 9428 0
-3301 9428 0
-3321 9428 0
-3341 9428 0
-3361 9428 0
-3402 9428 0
-9408 9429 0
-3002 9429 0
-3022 9429 0
-3042 9429 0
-3062 9429 0
-3082 9429 0
-3102 9429 0
-3122 9429 0
-3142 9429 0
-3162 9429 0
-3182 9429 0
-3202 9429 0
-3222 9429 0
-3242 9429 0
-3262 9429 0
-3282 9429 0
-3302 9429 0
-3322 9429 0
-3342 9429 0
-3362 9429 0
-3382 9429 0
-9409 9430 0
-3423 9430 0
-3443 9430 0
-3463 9430 0
-3483 9430 0
-3503 9430 0
-3523 9430 0
-3543 9430 0
-3563 9430 0
-3583 9430 0
-3603 9430 0
-3623 9430 0
-3643 9430 0
-3663 9430 0
-3683 9430 0
-3703 9430 0
-3723 9430 0
-3743 9430 0
-3763 9430 0
-3783 9430 0
-3803 9430 0
-9410 9431 0
-3403 9431 0
-3444 9431 0
-3464 9431 0
-3484 9431 0
-3504 9431 0
-3524 9431 0
-3544 9431 0
-3564 9431 0
-3584 9431 0
-3604 9431 0
-3624 9431 0
-3644 9431 0
-3664 9431 0
-3684 9431 0
-3704 9431 0
-3724 9431 0
-3744 9431 0
-3764 9431 0
-3784 9431 0
-3804 9431 0
-9411 9432 0
-3404 9432 0
-3424 9432 0
-3465 9432 0
-3485 9432 0
-3505 9432 0
-3525 9432 0
-3545 9432 0
-3565 9432 0
-3585 9432 0
-3605 9432 0
-3625 9432 0
-3645 9432 0
-3665 9432 0
-3685 9432 0
-3705 9432 0
-3725 9432 0
-3745 9432 0
-3765 9432 0
-3785 9432 0
-3805 9432 0
-9412 9433 0
-3405 9433 0
-3425 9433 0
-3445 9433 0
-3486 9433 0
-3506 9433 0
-3526 9433 0
-3546 9433 0
-3566 9433 0
-3586 9433 0
-3606 9433 0
-3626 9433 0
-3646 9433 0
-3666 9433 0
-3686 9433 0
-3706 9433 0
-3726 9433 0
-3746 9433 0
-3766 9433 0
-3786 9433 0
-3806 9433 0
-9413 9434 0
-3406 9434 0
-3426 9434 0
-3446 9434 0
-3466 9434 0
-3507 9434 0
-3527 9434 0
-3547 9434 0
-3567 9434 0
-3587 9434 0
-3607 9434 0
-3627 9434 0
-3647 9434 0
-3667 9434 0
-3687 9434 0
-3707 9434 0
-3727 9434 0
-3747 9434 0
-3767 9434 0
-3787 9434 0
-3807 9434 0
-9414 9435 0
-3407 9435 0
-3427 9435 0
-3447 9435 0
-3467 9435 0
-3487 9435 0
-3528 9435 0
-3548 9435 0
-3568 9435 0
-3588 9435 0
-3608 9435 0
-3628 9435 0
-3648 9435 0
-3668 9435 0
-3688 9435 0
-3708 9435 0
-3728 9435 0
-3748 9435 0
-3768 9435 0
-3788 9435 0
-3808 9435 0
-9415 9436 0
-3408 9436 0
-3428 9436 0
-3448 9436 0
-3468 9436 0
-3488 9436 0
-3508 9436 0
-3549 9436 0
-3569 9436 0
-3589 9436 0
-3609 9436 0
-3629 9436 0
-3649 9436 0
-3669 9436 0
-3689 9436 0
-3709 9436 0
-3729 9436 0
-3749 9436 0
-3769 9436 0
-3789 9436 0
-3809 9436 0
-9416 9437 0
-3409 9437 0
-3429 9437 0
-3449 9437 0
-3469 9437 0
-3489 9437 0
-3509 9437 0
-3529 9437 0
-3570 9437 0
-3590 9437 0
-3610 9437 0
-3630 9437 0
-3650 9437 0
-3670 9437 0
-3690 9437 0
-3710 9437 0
-3730 9437 0
-3750 9437 0
-3770 9437 0
-3790 9437 0
-3810 9437 0
-9417 9438 0
-3410 9438 0
-3430 9438 0
-3450 9438 0
-3470 9438 0
-3490 9438 0
-3510 9438 0
-3530 9438 0
-3550 9438 0
-3591 9438 0
-3611 9438 0
-3631 9438 0
-3651 9438 0
-3671 9438 0
-3691 9438 0
-3711 9438 0
-3731 9438 0
-3751 9438 0
-3771 9438 0
-3791 9438 0
-3811 9438 0
-9418 9439 0
-3411 9439 0
-3431 9439 0
-3451 9439 0
-3471 9439 0
-3491 9439 0
-3511 9439 0
-3531 9439 0
-3551 9439 0
-3571 9439 0
-3612 9439 0
-3632 9439 0
-3652 9439 0
-3672 9439 0
-3692 9439 0
-3712 9439 0
-3732 9439 0
-3752 9439 0
-3772 9439 0
-3792 9439 0
-3812 9439 0
-9419 9440 0
-3412 9440 0
-3432 9440 0
-3452 9440 0
-3472 9440 0
-3492 9440 0
-3512 9440 0
-3532 9440 0
-3552 9440 0
-3572 9440 0
-3592 9440 0
-3633 9440 0
-3653 9440 0
-3673 9440 0
-3693 9440 0
-3713 9440 0
-3733 9440 0
-3753 9440 0
-3773 9440 0
-3793 9440 0
-3813 9440 0
-9420 9441 0
-3413 9441 0
-3433 9441 0
-3453 9441 0
-3473 9441 0
-3493 9441 0
-3513 9441 0
-3533 9441 0
-3553 9441 0
-3573 9441 0
-3593 9441 0
-3613 9441 0
-3654 9441 0
-3674 9441 0
-3694 9441 0
-3714 9441 0
-3734 9441 0
-3754 9441 0
-3774 9441 0
-3794 9441 0
-3814 9441 0
-9421 9442 0
-3414 9442 0
-3434 9442 0
-3454 9442 0
-3474 9442 0
-3494 9442 0
-3514 9442 0
-3534 9442 0
-3554 9442 0
-3574 9442 0
-3594 9442 0
-3614 9442 0
-3634 9442 0
-3675 9442 0
-3695 9442 0
-3715 9442 0
-3735 9442 0
-3755 9442 0
-3775 9442 0
-3795 9442 0
-3815 9442 0
-9422 9443 0
-3415 9443 0
-3435 9443 0
-3455 9443 0
-3475 9443 0
-3495 9443 0
-3515 9443 0
-3535 9443 0
-3555 9443 0
-3575 9443 0
-3595 9443 0
-3615 9443 0
-3635 9443 0
-3655 9443 0
-3696 9443 0
-3716 9443 0
-3736 9443 0
-3756 9443 0
-3776 9443 0
-3796 9443 0
-3816 9443 0
-9423 9444 0
-3416 9444 0
-3436 9444 0
-3456 9444 0
-3476 9444 0
-3496 9444 0
-3516 9444 0
-3536 9444 0
-3556 9444 0
-3576 9444 0
-3596 9444 0
-3616 9444 0
-3636 9444 0
-3656 9444 0
-3676 9444 0
-3717 9444 0
-3737 9444 0
-3757 9444 0
-3777 9444 0
-3797 9444 0
-3817 9444 0
-9424 9445 0
-3417 9445 0
-3437 9445 0
-3457 9445 0
-3477 9445 0
-3497 9445 0
-3517 9445 0
-3537 9445 0
-3557 9445 0
-3577 9445 0
-3597 9445 0
-3617 9445 0
-3637 9445 0
-3657 9445 0
-3677 9445 0
-3697 9445 0
-3738 9445 0
-3758 9445 0
-3778 9445 0
-3798 9445 0
-3818 9445 0
-9425 9446 0
-3418 9446 0
-3438 9446 0
-3458 9446 0
-3478 9446 0
-3498 9446 0
-3518 9446 0
-3538 9446 0
-3558 9446 0
-3578 9446 0
-3598 9446 0
-3618 9446 0
-3638 9446 0
-3658 9446 0
-3678 9446 0
-3698 9446 0
-3718 9446 0
-3759 9446 0
-3779 9446 0
-3799 9446 0
-3819 9446 0
-9426 9447 0
-3419 9447 0
-3439 9447 0
-3459 9447 0
-3479 9447 0
-3499 9447 0
-3519 9447 0
-3539 9447 0
-3559 9447 0
-3579 9447 0
-3599 9447 0
-3619 9447 0
-3639 9447 0
-3659 9447 0
-3679 9447 0
-3699 9447 0
-3719 9447 0
-3739 9447 0
-3780 9447 0
-3800 9447 0
-3820 9447 0
-9427 9448 0
-3420 9448 0
-3440 9448 0
-3460 9448 0
-3480 9448 0
-3500 9448 0
-3520 9448 0
-3540 9448 0
-3560 9448 0
-3580 9448 0
-3600 9448 0
-3620 9448 0
-3640 9448 0
-3660 9448 0
-3680 9448 0
-3700 9448 0
-3720 9448 0
-3740 9448 0
-3760 9448 0
-3801 9448 0
-3821 9448 0
-9428 9449 0
-3421 9449 0
-3441 9449 0
-3461 9449 0
-3481 9449 0
-3501 9449 0
-3521 9449 0
-3541 9449 0
-3561 9449 0
-3581 9449 0
-3601 9449 0
-3621 9449 0
-3641 9449 0
-3661 9449 0
-3681 9449 0
-3701 9449 0
-3721 9449 0
-3741 9449 0
-3761 9449 0
-3781 9449 0
-3822 9449 0
-9429 9450 0
-3422 9450 0
-3442 9450 0
-3462 9450 0
-3482 9450 0
-3502 9450 0
-3522 9450 0
-3542 9450 0
-3562 9450 0
-3582 9450 0
-3602 9450 0
-3622 9450 0
-3642 9450 0
-3662 9450 0
-3682 9450 0
-3702 9450 0
-3722 9450 0
-3742 9450 0
-3762 9450 0
-3782 9450 0
-3802 9450 0
-9430 9451 0
-3843 9451 0
-3863 9451 0
-3883 9451 0
-3903 9451 0
-3923 9451 0
-3943 9451 0
-3963 9451 0
-3983 9451 0
-4003 9451 0
-4023 9451 0
-4043 9451 0
-4063 9451 0
-4083 9451 0
-4103 9451 0
-4123 9451 0
-4143 9451 0
-4163 9451 0
-4183 9451 0
-4203 9451 0
-4223 9451 0
-9431 9452 0
-3823 9452 0
-3864 9452 0
-3884 9452 0
-3904 9452 0
-3924 9452 0
-3944 9452 0
-3964 9452 0
-3984 9452 0
-4004 9452 0
-4024 9452 0
-4044 9452 0
-4064 9452 0
-4084 9452 0
-4104 9452 0
-4124 9452 0
-4144 9452 0
-4164 9452 0
-4184 9452 0
-4204 9452 0
-4224 9452 0
-9432 9453 0
-3824 9453 0
-3844 9453 0
-3885 9453 0
-3905 9453 0
-3925 9453 0
-3945 9453 0
-3965 9453 0
-3985 9453 0
-4005 9453 0
-4025 9453 0
-4045 9453 0
-4065 9453 0
-4085 9453 0
-4105 9453 0
-4125 9453 0
-4145 9453 0
-4165 9453 0
-4185 9453 0
-4205 9453 0
-4225 9453 0
-9433 9454 0
-3825 9454 0
-3845 9454 0
-3865 9454 0
-3906 9454 0
-3926 9454 0
-3946 9454 0
-3966 9454 0
-3986 9454 0
-4006 9454 0
-4026 9454 0
-4046 9454 0
-4066 9454 0
-4086 9454 0
-4106 9454 0
-4126 9454 0
-4146 9454 0
-4166 9454 0
-4186 9454 0
-4206 9454 0
-4226 9454 0
-9434 9455 0
-3826 9455 0
-3846 9455 0
-3866 9455 0
-3886 9455 0
-3927 9455 0
-3947 9455 0
-3967 9455 0
-3987 9455 0
-4007 9455 0
-4027 9455 0
-4047 9455 0
-4067 9455 0
-4087 9455 0
-4107 9455 0
-4127 9455 0
-4147 9455 0
-4167 9455 0
-4187 9455 0
-4207 9455 0
-4227 9455 0
-9435 9456 0
-3827 9456 0
-3847 9456 0
-3867 9456 0
-3887 9456 0
-3907 9456 0
-3948 9456 0
-3968 9456 0
-3988 9456 0
-4008 9456 0
-4028 9456 0
-4048 9456 0
-4068 9456 0
-4088 9456 0
-4108 9456 0
-4128 9456 0
-4148 9456 0
-4168 9456 0
-4188 9456 0
-4208 9456 0
-4228 9456 0
-9436 9457 0
-3828 9457 0
-3848 9457 0
-3868 9457 0
-3888 9457 0
-3908 9457 0
-3928 9457 0
-3969 9457 0
-3989 9457 0
-4009 9457 0
-4029 9457 0
-4049 9457 0
-4069 9457 0
-4089 9457 0
-4109 9457 0
-4129 9457 0
-4149 9457 0
-4169 9457 0
-4189 9457 0
-4209 9457 0
-4229 9457 0
-9437 9458 0
-3829 9458 0
-3849 9458 0
-3869 9458 0
-3889 9458 0
-3909 9458 0
-3929 9458 0
-3949 9458 0
-3990 9458 0
-4010 9458 0
-4030 9458 0
-4050 9458 0
-4070 9458 0
-4090 9458 0
-4110 9458 0
-4130 9458 0
-4150 9458 0
-4170 9458 0
-4190 9458 0
-4210 9458 0
-4230 9458 0
-9438 9459 0
-3830 9459 0
-3850 9459 0
-3870 9459 0
-3890 9459 0
-3910 9459 0
-3930 9459 0
-3950 9459 0
-3970 9459 0
-4011 9459 0
-4031 9459 0
-4051 9459 0
-4071 9459 0
-4091 9459 0
-4111 9459 0
-4131 9459 0
-4151 9459 0
-4171 9459 0
-4191 9459 0
-4211 9459 0
-4231 9459 0
-9439 9460 0
-3831 9460 0
-3851 9460 0
-3871 9460 0
-3891 9460 0
-3911 9460 0
-3931 9460 0
-3951 9460 0
-3971 9460 0
-3991 9460 0
-4032 9460 0
-4052 9460 0
-4072 9460 0
-4092 9460 0
-4112 9460 0
-4132 9460 0
-4152 9460 0
-4172 9460 0
-4192 9460 0
-4212 9460 0
-4232 9460 0
-9440 9461 0
-3832 9461 0
-3852 9461 0
-3872 9461 0
-3892 9461 0
-3912 9461 0
-3932 9461 0
-3952 9461 0
-3972 9461 0
-3992 9461 0
-4012 9461 0
-4053 9461 0
-4073 9461 0
-4093 9461 0
-4113 9461 0
-4133 9461 0
-4153 9461 0
-4173 9461 0
-4193 9461 0
-4213 9461 0
-4233 9461 0
-9441 9462 0
-3833 9462 0
-3853 9462 0
-3873 9462 0
-3893 9462 0
-3913 9462 0
-3933 9462 0
-3953 9462 0
-3973 9462 0
-3993 9462 0
-4013 9462 0
-4033 9462 0
-4074 9462 0
-4094 9462 0
-4114 9462 0
-4134 9462 0
-4154 9462 0
-4174 9462 0
-4194 9462 0
-4214 9462 0
-4234 9462 0
-9442 9463 0
-3834 9463 0
-3854 9463 0
-3874 9463 0
-3894 9463 0
-3914 9463 0
-3934 9463 0
-3954 9463 0
-3974 9463 0
-3994 9463 0
-4014 9463 0
-4034 9463 0
-4054 9463 0
-4095 9463 0
-4115 9463 0
-4135 9463 0
-4155 9463 0
-4175 9463 0
-4195 9463 0
-4215 9463 0
-4235 9463 0
-9443 9464 0
-3835 9464 0
-3855 9464 0
-3875 9464 0
-3895 9464 0
-3915 9464 0
-3935 9464 0
-3955 9464 0
-3975 9464 0
-3995 9464 0
-4015 9464 0
-4035 9464 0
-4055 9464 0
-4075 9464 0
-4116 9464 0
-4136 9464 0
-4156 9464 0
-4176 9464 0
-4196 9464 0
-4216 9464 0
-4236 9464 0
-9444 9465 0
-3836 9465 0
-3856 9465 0
-3876 9465 0
-3896 9465 0
-3916 9465 0
-3936 9465 0
-3956 9465 0
-3976 9465 0
-3996 9465 0
-4016 9465 0
-4036 9465 0
-4056 9465 0
-4076 9465 0
-4096 9465 0
-4137 9465 0
-4157 9465 0
-4177 9465 0
-4197 9465 0
-4217 9465 0
-4237 9465 0
-9445 9466 0
-3837 9466 0
-3857 9466 0
-3877 9466 0
-3897 9466 0
-3917 9466 0
-3937 9466 0
-3957 9466 0
-3977 9466 0
-3997 9466 0
-4017 9466 0
-4037 9466 0
-4057 9466 0
-4077 9466 0
-4097 9466 0
-4117 9466 0
-4158 9466 0
-4178 9466 0
-4198 9466 0
-4218 9466 0
-4238 9466 0
-9446 9467 0
-3838 9467 0
-3858 9467 0
-3878 9467 0
-3898 9467 0
-3918 9467 0
-3938 9467 0
-3958 9467 0
-3978 9467 0
-3998 9467 0
-4018 9467 0
-4038 9467 0
-4058 9467 0
-4078 9467 0
-4098 9467 0
-4118 9467 0
-4138 9467 0
-4179 9467 0
-4199 9467 0
-4219 9467 0
-4239 9467 0
-9447 9468 0
-3839 9468 0
-3859 9468 0
-3879 9468 0
-3899 9468 0
-3919 9468 0
-3939 9468 0
-3959 9468 0
-3979 9468 0
-3999 9468 0
-4019 9468 0
-4039 9468 0
-4059 9468 0
-4079 9468 0
-4099 9468 0
-4119 9468 0
-4139 9468 0
-4159 9468 0
-4200 9468 0
-4220 9468 0
-4240 9468 0
-9448 9469 0
-3840 9469 0
-3860 9469 0
-3880 9469 0
-3900 9469 0
-3920 9469 0
-3940 9469 0
-3960 9469 0
-3980 9469 0
-4000 9469 0
-4020 9469 0
-4040 9469 0
-4060 9469 0
-4080 9469 0
-4100 9469 0
-4120 9469 0
-4140 9469 0
-4160 9469 0
-4180 9469 0
-4221 9469 0
-4241 9469 0
-9449 9470 0
-3841 9470 0
-3861 9470 0
-3881 9470 0
-3901 9470 0
-3921 9470 0
-3941 9470 0
-3961 9470 0
-3981 9470 0
-4001 9470 0
-4021 9470 0
-4041 9470 0
-4061 9470 0
-4081 9470 0
-4101 9470 0
-4121 9470 0
-4141 9470 0
-4161 9470 0
-4181 9470 0
-4201 9470 0
-4242 9470 0
-9450 9471 0
-3842 9471 0
-3862 9471 0
-3882 9471 0
-3902 9471 0
-3922 9471 0
-3942 9471 0
-3962 9471 0
-3982 9471 0
-4002 9471 0
-4022 9471 0
-4042 9471 0
-4062 9471 0
-4082 9471 0
-4102 9471 0
-4122 9471 0
-4142 9471 0
-4162 9471 0
-4182 9471 0
-4202 9471 0
-4222 9471 0
-9451 9472 0
-4263 9472 0
-4283 9472 0
-4303 9472 0
-4323 9472 0
-4343 9472 0
-4363 9472 0
-4383 9472 0
-4403 9472 0
-4423 9472 0
-4443 9472 0
-4463 9472 0
-4483 9472 0
-4503 9472 0
-4523 9472 0
-4543 9472 0
-4563 9472 0
-4583 9472 0
-4603 9472 0
-4623 9472 0
-4643 9472 0
-9452 9473 0
-4243 9473 0
-4284 9473 0
-4304 9473 0
-4324 9473 0
-4344 9473 0
-4364 9473 0
-4384 9473 0
-4404 9473 0
-4424 9473 0
-4444 9473 0
-4464 9473 0
-4484 9473 0
-4504 9473 0
-4524 9473 0
-4544 9473 0
-4564 9473 0
-4584 9473 0
-4604 9473 0
-4624 9473 0
-4644 9473 0
-9453 9474 0
-4244 9474 0
-4264 9474 0
-4305 9474 0
-4325 9474 0
-4345 9474 0
-4365 9474 0
-4385 9474 0
-4405 9474 0
-4425 9474 0
-4445 9474 0
-4465 9474 0
-4485 9474 0
-4505 9474 0
-4525 9474 0
-4545 9474 0
-4565 9474 0
-4585 9474 0
-4605 9474 0
-4625 9474 0
-4645 9474 0
-9454 9475 0
-4245 9475 0
-4265 9475 0
-4285 9475 0
-4326 9475 0
-4346 9475 0
-4366 9475 0
-4386 9475 0
-4406 9475 0
-4426 9475 0
-4446 9475 0
-4466 9475 0
-4486 9475 0
-4506 9475 0
-4526 9475 0
-4546 9475 0
-4566 9475 0
-4586 9475 0
-4606 9475 0
-4626 9475 0
-4646 9475 0
-9455 9476 0
-4246 9476 0
-4266 9476 0
-4286 9476 0
-4306 9476 0
-4347 9476 0
-4367 9476 0
-4387 9476 0
-4407 9476 0
-4427 9476 0
-4447 9476 0
-4467 9476 0
-4487 9476 0
-4507 9476 0
-4527 9476 0
-4547 9476 0
-4567 9476 0
-4587 9476 0
-4607 9476 0
-4627 9476 0
-4647 9476 0
-9456 9477 0
-4247 9477 0
-4267 9477 0
-4287 9477 0
-4307 9477 0
-4327 9477 0
-4368 9477 0
-4388 9477 0
-4408 9477 0
-4428 9477 0
-4448 9477 0
-4468 9477 0
-4488 9477 0
-4508 9477 0
-4528 9477 0
-4548 9477 0
-4568 9477 0
-4588 9477 0
-4608 9477 0
-4628 9477 0
-4648 9477 0
-9457 9478 0
-4248 9478 0
-4268 9478 0
-4288 9478 0
-4308 9478 0
-4328 9478 0
-4348 9478 0
-4389 9478 0
-4409 9478 0
-4429 9478 0
-4449 9478 0
-4469 9478 0
-4489 9478 0
-4509 9478 0
-4529 9478 0
-4549 9478 0
-4569 9478 0
-4589 9478 0
-4609 9478 0
-4629 9478 0
-4649 9478 0
-9458 9479 0
-4249 9479 0
-4269 9479 0
-4289 9479 0
-4309 9479 0
-4329 9479 0
-4349 9479 0
-4369 9479 0
-4410 9479 0
-4430 9479 0
-4450 9479 0
-4470 9479 0
-4490 9479 0
-4510 9479 0
-4530 9479 0
-4550 9479 0
-4570 9479 0
-4590 9479 0
-4610 9479 0
-4630 9479 0
-4650 9479 0
-9459 9480 0
-4250 9480 0
-4270 9480 0
-4290 9480 0
-4310 9480 0
-4330 9480 0
-4350 9480 0
-4370 9480 0
-4390 9480 0
-4431 9480 0
-4451 9480 0
-4471 9480 0
-4491 9480 0
-4511 9480 0
-4531 9480 0
-4551 9480 0
-4571 9480 0
-4591 9480 0
-4611 9480 0
-4631 9480 0
-4651 9480 0
-9460 9481 0
-4251 9481 0
-4271 9481 0
-4291 9481 0
-4311 9481 0
-4331 9481 0
-4351 9481 0
-4371 9481 0
-4391 9481 0
-4411 9481 0
-4452 9481 0
-4472 9481 0
-4492 9481 0
-4512 9481 0
-4532 9481 0
-4552 9481 0
-4572 9481 0
-4592 9481 0
-4612 9481 0
-4632 9481 0
-4652 9481 0
-9461 9482 0
-4252 9482 0
-4272 9482 0
-4292 9482 0
-4312 9482 0
-4332 9482 0
-4352 9482 0
-4372 9482 0
-4392 9482 0
-4412 9482 0
-4432 9482 0
-4473 9482 0
-4493 9482 0
-4513 9482 0
-4533 9482 0
-4553 9482 0
-4573 9482 0
-4593 9482 0
-4613 9482 0
-4633 9482 0
-4653 9482 0
-9462 9483 0
-4253 9483 0
-4273 9483 0
-4293 9483 0
-4313 9483 0
-4333 9483 0
-4353 9483 0
-4373 9483 0
-4393 9483 0
-4413 9483 0
-4433 9483 0
-4453 9483 0
-4494 9483 0
-4514 9483 0
-4534 9483 0
-4554 9483 0
-4574 9483 0
-4594 9483 0
-4614 9483 0
-4634 9483 0
-4654 9483 0
-9463 9484 0
-4254 9484 0
-4274 9484 0
-4294 9484 0
-4314 9484 0
-4334 9484 0
-4354 9484 0
-4374 9484 0
-4394 9484 0
-4414 9484 0
-4434 9484 0
-4454 9484 0
-4474 9484 0
-4515 9484 0
-4535 9484 0
-4555 9484 0
-4575 9484 0
-4595 9484 0
-4615 9484 0
-4635 9484 0
-4655 9484 0
-9464 9485 0
-4255 9485 0
-4275 9485 0
-4295 9485 0
-4315 9485 0
-4335 9485 0
-4355 9485 0
-4375 9485 0
-4395 9485 0
-4415 9485 0
-4435 9485 0
-4455 9485 0
-4475 9485 0
-4495 9485 0
-4536 9485 0
-4556 9485 0
-4576 9485 0
-4596 9485 0
-4616 9485 0
-4636 9485 0
-4656 9485 0
-9465 9486 0
-4256 9486 0
-4276 9486 0
-4296 9486 0
-4316 9486 0
-4336 9486 0
-4356 9486 0
-4376 9486 0
-4396 9486 0
-4416 9486 0
-4436 9486 0
-4456 9486 0
-4476 9486 0
-4496 9486 0
-4516 9486 0
-4557 9486 0
-4577 9486 0
-4597 9486 0
-4617 9486 0
-4637 9486 0
-4657 9486 0
-9466 9487 0
-4257 9487 0
-4277 9487 0
-4297 9487 0
-4317 9487 0
-4337 9487 0
-4357 9487 0
-4377 9487 0
-4397 9487 0
-4417 9487 0
-4437 9487 0
-4457 9487 0
-4477 9487 0
-4497 9487 0
-4517 9487 0
-4537 9487 0
-4578 9487 0
-4598 9487 0
-4618 9487 0
-4638 9487 0
-4658 9487 0
-9467 9488 0
-4258 9488 0
-4278 9488 0
-4298 9488 0
-4318 9488 0
-4338 9488 0
-4358 9488 0
-4378 9488 0
-4398 9488 0
-4418 9488 0
-4438 9488 0
-4458 9488 0
-4478 9488 0
-4498 9488 0
-4518 9488 0
-4538 9488 0
-4558 9488 0
-4599 9488 0
-4619 9488 0
-4639 9488 0
-4659 9488 0
-9468 9489 0
-4259 9489 0
-4279 9489 0
-4299 9489 0
-4319 9489 0
-4339 9489 0
-4359 9489 0
-4379 9489 0
-4399 9489 0
-4419 9489 0
-4439 9489 0
-4459 9489 0
-4479 9489 0
-4499 9489 0
-4519 9489 0
-4539 9489 0
-4559 9489 0
-4579 9489 0
-4620 9489 0
-4640 9489 0
-4660 9489 0
-9469 9490 0
-4260 9490 0
-4280 9490 0
-4300 9490 0
-4320 9490 0
-4340 9490 0
-4360 9490 0
-4380 9490 0
-4400 9490 0
-4420 9490 0
-4440 9490 0
-4460 9490 0
-4480 9490 0
-4500 9490 0
-4520 9490 0
-4540 9490 0
-4560 9490 0
-4580 9490 0
-4600 9490 0
-4641 9490 0
-4661 9490 0
-9470 9491 0
-4261 9491 0
-4281 9491 0
-4301 9491 0
-4321 9491 0
-4341 9491 0
-4361 9491 0
-4381 9491 0
-4401 9491 0
-4421 9491 0
-4441 9491 0
-4461 9491 0
-4481 9491 0
-4501 9491 0
-4521 9491 0
-4541 9491 0
-4561 9491 0
-4581 9491 0
-4601 9491 0
-4621 9491 0
-4662 9491 0
-9471 9492 0
-4262 9492 0
-4282 9492 0
-4302 9492 0
-4322 9492 0
-4342 9492 0
-4362 9492 0
-4382 9492 0
-4402 9492 0
-4422 9492 0
-4442 9492 0
-4462 9492 0
-4482 9492 0
-4502 9492 0
-4522 9492 0
-4542 9492 0
-4562 9492 0
-4582 9492 0
-4602 9492 0
-4622 9492 0
-4642 9492 0
-9472 9493 0
-4683 9493 0
-4703 9493 0
-4723 9493 0
-4743 9493 0
-4763 9493 0
-4783 9493 0
-4803 9493 0
-4823 9493 0
-4843 9493 0
-4863 9493 0
-4883 9493 0
-4903 9493 0
-4923 9493 0
-4943 9493 0
-4963 9493 0
-4983 9493 0
-5003 9493 0
-5023 9493 0
-5043 9493 0
-5063 9493 0
-9473 9494 0
-4663 9494 0
-4704 9494 0
-4724 9494 0
-4744 9494 0
-4764 9494 0
-4784 9494 0
-4804 9494 0
-4824 9494 0
-4844 9494 0
-4864 9494 0
-4884 9494 0
-4904 9494 0
-4924 9494 0
-4944 9494 0
-4964 9494 0
-4984 9494 0
-5004 9494 0
-5024 9494 0
-5044 9494 0
-5064 9494 0
-9474 9495 0
-4664 9495 0
-4684 9495 0
-4725 9495 0
-4745 9495 0
-4765 9495 0
-4785 9495 0
-4805 9495 0
-4825 9495 0
-4845 9495 0
-4865 9495 0
-4885 9495 0
-4905 9495 0
-4925 9495 0
-4945 9495 0
-4965 9495 0
-4985 9495 0
-5005 9495 0
-5025 9495 0
-5045 9495 0
-5065 9495 0
-9475 9496 0
-4665 9496 0
-4685 9496 0
-4705 9496 0
-4746 9496 0
-4766 9496 0
-4786 9496 0
-4806 9496 0
-4826 9496 0
-4846 9496 0
-4866 9496 0
-4886 9496 0
-4906 9496 0
-4926 9496 0
-4946 9496 0
-4966 9496 0
-4986 9496 0
-5006 9496 0
-5026 9496 0
-5046 9496 0
-5066 9496 0
-9476 9497 0
-4666 9497 0
-4686 9497 0
-4706 9497 0
-4726 9497 0
-4767 9497 0
-4787 9497 0
-4807 9497 0
-4827 9497 0
-4847 9497 0
-4867 9497 0
-4887 9497 0
-4907 9497 0
-4927 9497 0
-4947 9497 0
-4967 9497 0
-4987 9497 0
-5007 9497 0
-5027 9497 0
-5047 9497 0
-5067 9497 0
-9477 9498 0
-4667 9498 0
-4687 9498 0
-4707 9498 0
-4727 9498 0
-4747 9498 0
-4788 9498 0
-4808 9498 0
-4828 9498 0
-4848 9498 0
-4868 9498 0
-4888 9498 0
-4908 9498 0
-4928 9498 0
-4948 9498 0
-4968 9498 0
-4988 9498 0
-5008 9498 0
-5028 9498 0
-5048 9498 0
-5068 9498 0
-9478 9499 0
-4668 9499 0
-4688 9499 0
-4708 9499 0
-4728 9499 0
-4748 9499 0
-4768 9499 0
-4809 9499 0
-4829 9499 0
-4849 9499 0
-4869 9499 0
-4889 9499 0
-4909 9499 0
-4929 9499 0
-4949 9499 0
-4969 9499 0
-4989 9499 0
-5009 9499 0
-5029 9499 0
-5049 9499 0
-5069 9499 0
-9479 9500 0
-4669 9500 0
-4689 9500 0
-4709 9500 0
-4729 9500 0
-4749 9500 0
-4769 9500 0
-4789 9500 0
-4830 9500 0
-4850 9500 0
-4870 9500 0
-4890 9500 0
-4910 9500 0
-4930 9500 0
-4950 9500 0
-4970 9500 0
-4990 9500 0
-5010 9500 0
-5030 9500 0
-5050 9500 0
-5070 9500 0
-9480 9501 0
-4670 9501 0
-4690 9501 0
-4710 9501 0
-4730 9501 0
-4750 9501 0
-4770 9501 0
-4790 9501 0
-4810 9501 0
-4851 9501 0
-4871 9501 0
-4891 9501 0
-4911 9501 0
-4931 9501 0
-4951 9501 0
-4971 9501 0
-4991 9501 0
-5011 9501 0
-5031 9501 0
-5051 9501 0
-5071 9501 0
-9481 9502 0
-4671 9502 0
-4691 9502 0
-4711 9502 0
-4731 9502 0
-4751 9502 0
-4771 9502 0
-4791 9502 0
-4811 9502 0
-4831 9502 0
-4872 9502 0
-4892 9502 0
-4912 9502 0
-4932 9502 0
-4952 9502 0
-4972 9502 0
-4992 9502 0
-5012 9502 0
-5032 9502 0
-5052 9502 0
-5072 9502 0
-9482 9503 0
-4672 9503 0
-4692 9503 0
-4712 9503 0
-4732 9503 0
-4752 9503 0
-4772 9503 0
-4792 9503 0
-4812 9503 0
-4832 9503 0
-4852 9503 0
-4893 9503 0
-4913 9503 0
-4933 9503 0
-4953 9503 0
-4973 9503 0
-4993 9503 0
-5013 9503 0
-5033 9503 0
-5053 9503 0
-5073 9503 0
-9483 9504 0
-4673 9504 0
-4693 9504 0
-4713 9504 0
-4733 9504 0
-4753 9504 0
-4773 9504 0
-4793 9504 0
-4813 9504 0
-4833 9504 0
-4853 9504 0
-4873 9504 0
-4914 9504 0
-4934 9504 0
-4954 9504 0
-4974 9504 0
-4994 9504 0
-5014 9504 0
-5034 9504 0
-5054 9504 0
-5074 9504 0
-9484 9505 0
-4674 9505 0
-4694 9505 0
-4714 9505 0
-4734 9505 0
-4754 9505 0
-4774 9505 0
-4794 9505 0
-4814 9505 0
-4834 9505 0
-4854 9505 0
-4874 9505 0
-4894 9505 0
-4935 9505 0
-4955 9505 0
-4975 9505 0
-4995 9505 0
-5015 9505 0
-5035 9505 0
-5055 9505 0
-5075 9505 0
-9485 9506 0
-4675 9506 0
-4695 9506 0
-4715 9506 0
-4735 9506 0
-4755 9506 0
-4775 9506 0
-4795 9506 0
-4815 9506 0
-4835 9506 0
-4855 9506 0
-4875 9506 0
-4895 9506 0
-4915 9506 0
-4956 9506 0
-4976 9506 0
-4996 9506 0
-5016 9506 0
-5036 9506 0
-5056 9506 0
-5076 9506 0
-9486 9507 0
-4676 9507 0
-4696 9507 0
-4716 9507 0
-4736 9507 0
-4756 9507 0
-4776 9507 0
-4796 9507 0
-4816 9507 0
-4836 9507 0
-4856 9507 0
-4876 9507 0
-4896 9507 0
-4916 9507 0
-4936 9507 0
-4977 9507 0
-4997 9507 0
-5017 9507 0
-5037 9507 0
-5057 9507 0
-5077 9507 0
-9487 9508 0
-4677 9508 0
-4697 9508 0
-4717 9508 0
-4737 9508 0
-4757 9508 0
-4777 9508 0
-4797 9508 0
-4817 9508 0
-4837 9508 0
-4857 9508 0
-4877 9508 0
-4897 9508 0
-4917 9508 0
-4937 9508 0
-4957 9508 0
-4998 9508 0
-5018 9508 0
-5038 9508 0
-5058 9508 0
-5078 9508 0
-9488 9509 0
-4678 9509 0
-4698 9509 0
-4718 9509 0
-4738 9509 0
-4758 9509 0
-4778 9509 0
-4798 9509 0
-4818 9509 0
-4838 9509 0
-4858 9509 0
-4878 9509 0
-4898 9509 0
-4918 9509 0
-4938 9509 0
-4958 9509 0
-4978 9509 0
-5019 9509 0
-5039 9509 0
-5059 9509 0
-5079 9509 0
-9489 9510 0
-4679 9510 0
-4699 9510 0
-4719 9510 0
-4739 9510 0
-4759 9510 0
-4779 9510 0
-4799 9510 0
-4819 9510 0
-4839 9510 0
-4859 9510 0
-4879 9510 0
-4899 9510 0
-4919 9510 0
-4939 9510 0
-4959 9510 0
-4979 9510 0
-4999 9510 0
-5040 9510 0
-5060 9510 0
-5080 9510 0
-9490 9511 0
-4680 9511 0
-4700 9511 0
-4720 9511 0
-4740 9511 0
-4760 9511 0
-4780 9511 0
-4800 9511 0
-4820 9511 0
-4840 9511 0
-4860 9511 0
-4880 9511 0
-4900 9511 0
-4920 9511 0
-4940 9511 0
-4960 9511 0
-4980 9511 0
-5000 9511 0
-5020 9511 0
-5061 9511 0
-5081 9511 0
-9491 9512 0
-4681 9512 0
-4701 9512 0
-4721 9512 0
-4741 9512 0
-4761 9512 0
-4781 9512 0
-4801 9512 0
-4821 9512 0
-4841 9512 0
-4861 9512 0
-4881 9512 0
-4901 9512 0
-4921 9512 0
-4941 9512 0
-4961 9512 0
-4981 9512 0
-5001 9512 0
-5021 9512 0
-5041 9512 0
-5082 9512 0
-9492 9513 0
-4682 9513 0
-4702 9513 0
-4722 9513 0
-4742 9513 0
-4762 9513 0
-4782 9513 0
-4802 9513 0
-4822 9513 0
-4842 9513 0
-4862 9513 0
-4882 9513 0
-4902 9513 0
-4922 9513 0
-4942 9513 0
-4962 9513 0
-4982 9513 0
-5002 9513 0
-5022 9513 0
-5042 9513 0
-5062 9513 0
-9493 9514 0
-5103 9514 0
-5123 9514 0
-5143 9514 0
-5163 9514 0
-5183 9514 0
-5203 9514 0
-5223 9514 0
-5243 9514 0
-5263 9514 0
-5283 9514 0
-5303 9514 0
-5323 9514 0
-5343 9514 0
-5363 9514 0
-5383 9514 0
-5403 9514 0
-5423 9514 0
-5443 9514 0
-5463 9514 0
-5483 9514 0
-9494 9515 0
-5083 9515 0
-5124 9515 0
-5144 9515 0
-5164 9515 0
-5184 9515 0
-5204 9515 0
-5224 9515 0
-5244 9515 0
-5264 9515 0
-5284 9515 0
-5304 9515 0
-5324 9515 0
-5344 9515 0
-5364 9515 0
-5384 9515 0
-5404 9515 0
-5424 9515 0
-5444 9515 0
-5464 9515 0
-5484 9515 0
-9495 9516 0
-5084 9516 0
-5104 9516 0
-5145 9516 0
-5165 9516 0
-5185 9516 0
-5205 9516 0
-5225 9516 0
-5245 9516 0
-5265 9516 0
-5285 9516 0
-5305 9516 0
-5325 9516 0
-5345 9516 0
-5365 9516 0
-5385 9516 0
-5405 9516 0
-5425 9516 0
-5445 9516 0
-5465 9516 0
-5485 9516 0
-9496 9517 0
-5085 9517 0
-5105 9517 0
-5125 9517 0
-5166 9517 0
-5186 9517 0
-5206 9517 0
-5226 9517 0
-5246 9517 0
-5266 9517 0
-5286 9517 0
-5306 9517 0
-5326 9517 0
-5346 9517 0
-5366 9517 0
-5386 9517 0
-5406 9517 0
-5426 9517 0
-5446 9517 0
-5466 9517 0
-5486 9517 0
-9497 9518 0
-5086 9518 0
-5106 9518 0
-5126 9518 0
-5146 9518 0
-5187 9518 0
-5207 9518 0
-5227 9518 0
-5247 9518 0
-5267 9518 0
-5287 9518 0
-5307 9518 0
-5327 9518 0
-5347 9518 0
-5367 9518 0
-5387 9518 0
-5407 9518 0
-5427 9518 0
-5447 9518 0
-5467 9518 0
-5487 9518 0
-9498 9519 0
-5087 9519 0
-5107 9519 0
-5127 9519 0
-5147 9519 0
-5167 9519 0
-5208 9519 0
-5228 9519 0
-5248 9519 0
-5268 9519 0
-5288 9519 0
-5308 9519 0
-5328 9519 0
-5348 9519 0
-5368 9519 0
-5388 9519 0
-5408 9519 0
-5428 9519 0
-5448 9519 0
-5468 9519 0
-5488 9519 0
-9499 9520 0
-5088 9520 0
-5108 9520 0
-5128 9520 0
-5148 9520 0
-5168 9520 0
-5188 9520 0
-5229 9520 0
-5249 9520 0
-5269 9520 0
-5289 9520 0
-5309 9520 0
-5329 9520 0
-5349 9520 0
-5369 9520 0
-5389 9520 0
-5409 9520 0
-5429 9520 0
-5449 9520 0
-5469 9520 0
-5489 9520 0
-9500 9521 0
-5089 9521 0
-5109 9521 0
-5129 9521 0
-5149 9521 0
-5169 9521 0
-5189 9521 0
-5209 9521 0
-5250 9521 0
-5270 9521 0
-5290 9521 0
-5310 9521 0
-5330 9521 0
-5350 9521 0
-5370 9521 0
-5390 9521 0
-5410 9521 0
-5430 9521 0
-5450 9521 0
-5470 9521 0
-5490 9521 0
-9501 9522 0
-5090 9522 0
-5110 9522 0
-5130 9522 0
-5150 9522 0
-5170 9522 0
-5190 9522 0
-5210 9522 0
-5230 9522 0
-5271 9522 0
-5291 9522 0
-5311 9522 0
-5331 9522 0
-5351 9522 0
-5371 9522 0
-5391 9522 0
-5411 9522 0
-5431 9522 0
-5451 9522 0
-5471 9522 0
-5491 9522 0
-9502 9523 0
-5091 9523 0
-5111 9523 0
-5131 9523 0
-5151 9523 0
-5171 9523 0
-5191 9523 0
-5211 9523 0
-5231 9523 0
-5251 9523 0
-5292 9523 0
-5312 9523 0
-5332 9523 0
-5352 9523 0
-5372 9523 0
-5392 9523 0
-5412 9523 0
-5432 9523 0
-5452 9523 0
-5472 9523 0
-5492 9523 0
-9503 9524 0
-5092 9524 0
-5112 9524 0
-5132 9524 0
-5152 9524 0
-5172 9524 0
-5192 9524 0
-5212 9524 0
-5232 9524 0
-5252 9524 0
-5272 9524 0
-5313 9524 0
-5333 9524 0
-5353 9524 0
-5373 9524 0
-5393 9524 0
-5413 9524 0
-5433 9524 0
-5453 9524 0
-5473 9524 0
-5493 9524 0
-9504 9525 0
-5093 9525 0
-5113 9525 0
-5133 9525 0
-5153 9525 0
-5173 9525 0
-5193 9525 0
-5213 9525 0
-5233 9525 0
-5253 9525 0
-5273 9525 0
-5293 9525 0
-5334 9525 0
-5354 9525 0
-5374 9525 0
-5394 9525 0
-5414 9525 0
-5434 9525 0
-5454 9525 0
-5474 9525 0
-5494 9525 0
-9505 9526 0
-5094 9526 0
-5114 9526 0
-5134 9526 0
-5154 9526 0
-5174 9526 0
-5194 9526 0
-5214 9526 0
-5234 9526 0
-5254 9526 0
-5274 9526 0
-5294 9526 0
-5314 9526 0
-5355 9526 0
-5375 9526 0
-5395 9526 0
-5415 9526 0
-5435 9526 0
-5455 9526 0
-5475 9526 0
-5495 9526 0
-9506 9527 0
-5095 9527 0
-5115 9527 0
-5135 9527 0
-5155 9527 0
-5175 9527 0
-5195 9527 0
-5215 9527 0
-5235 9527 0
-5255 9527 0
-5275 9527 0
-5295 9527 0
-5315 9527 0
-5335 9527 0
-5376 9527 0
-5396 9527 0
-5416 9527 0
-5436 9527 0
-5456 9527 0
-5476 9527 0
-5496 9527 0
-9507 9528 0
-5096 9528 0
-5116 9528 0
-5136 9528 0
-5156 9528 0
-5176 9528 0
-5196 9528 0
-5216 9528 0
-5236 9528 0
-5256 9528 0
-5276 9528 0
-5296 9528 0
-5316 9528 0
-5336 9528 0
-5356 9528 0
-5397 9528 0
-5417 9528 0
-5437 9528 0
-5457 9528 0
-5477 9528 0
-5497 9528 0
-9508 9529 0
-5097 9529 0
-5117 9529 0
-5137 9529 0
-5157 9529 0
-5177 9529 0
-5197 9529 0
-5217 9529 0
-5237 9529 0
-5257 9529 0
-5277 9529 0
-5297 9529 0
-5317 9529 0
-5337 9529 0
-5357 9529 0
-5377 9529 0
-5418 9529 0
-5438 9529 0
-5458 9529 0
-5478 9529 0
-5498 9529 0
-9509 9530 0
-5098 9530 0
-5118 9530 0
-5138 9530 0
-5158 9530 0
-5178 9530 0
-5198 9530 0
-5218 9530 0
-5238 9530 0
-5258 9530 0
-5278 9530 0
-5298 9530 0
-5318 9530 0
-5338 9530 0
-5358 9530 0
-5378 9530 0
-5398 9530 0
-5439 9530 0
-5459 9530 0
-5479 9530 0
-5499 9530 0
-9510 9531 0
-5099 9531 0
-5119 9531 0
-5139 9531 0
-5159 9531 0
-5179 9531 0
-5199 9531 0
-5219 9531 0
-5239 9531 0
-5259 9531 0
-5279 9531 0
-5299 9531 0
-5319 9531 0
-5339 9531 0
-5359 9531 0
-5379 9531 0
-5399 9531 0
-5419 9531 0
-5460 9531 0
-5480 9531 0
-5500 9531 0
-9511 9532 0
-5100 9532 0
-5120 9532 0
-5140 9532 0
-5160 9532 0
-5180 9532 0
-5200 9532 0
-5220 9532 0
-5240 9532 0
-5260 9532 0
-5280 9532 0
-5300 9532 0
-5320 9532 0
-5340 9532 0
-5360 9532 0
-5380 9532 0
-5400 9532 0
-5420 9532 0
-5440 9532 0
-5481 9532 0
-5501 9532 0
-9512 9533 0
-5101 9533 0
-5121 9533 0
-5141 9533 0
-5161 9533 0
-5181 9533 0
-5201 9533 0
-5221 9533 0
-5241 9533 0
-5261 9533 0
-5281 9533 0
-5301 9533 0
-5321 9533 0
-5341 9533 0
-5361 9533 0
-5381 9533 0
-5401 9533 0
-5421 9533 0
-5441 9533 0
-5461 9533 0
-5502 9533 0
-9513 9534 0
-5102 9534 0
-5122 9534 0
-5142 9534 0
-5162 9534 0
-5182 9534 0
-5202 9534 0
-5222 9534 0
-5242 9534 0
-5262 9534 0
-5282 9534 0
-5302 9534 0
-5322 9534 0
-5342 9534 0
-5362 9534 0
-5382 9534 0
-5402 9534 0
-5422 9534 0
-5442 9534 0
-5462 9534 0
-5482 9534 0
-9514 9535 0
-5523 9535 0
-5543 9535 0
-5563 9535 0
-5583 9535 0
-5603 9535 0
-5623 9535 0
-5643 9535 0
-5663 9535 0
-5683 9535 0
-5703 9535 0
-5723 9535 0
-5743 9535 0
-5763 9535 0
-5783 9535 0
-5803 9535 0
-5823 9535 0
-5843 9535 0
-5863 9535 0
-5883 9535 0
-5903 9535 0
-9515 9536 0
-5503 9536 0
-5544 9536 0
-5564 9536 0
-5584 9536 0
-5604 9536 0
-5624 9536 0
-5644 9536 0
-5664 9536 0
-5684 9536 0
-5704 9536 0
-5724 9536 0
-5744 9536 0
-5764 9536 0
-5784 9536 0
-5804 9536 0
-5824 9536 0
-5844 9536 0
-5864 9536 0
-5884 9536 0
-5904 9536 0
-9516 9537 0
-5504 9537 0
-5524 9537 0
-5565 9537 0
-5585 9537 0
-5605 9537 0
-5625 9537 0
-5645 9537 0
-5665 9537 0
-5685 9537 0
-5705 9537 0
-5725 9537 0
-5745 9537 0
-5765 9537 0
-5785 9537 0
-5805 9537 0
-5825 9537 0
-5845 9537 0
-5865 9537 0
-5885 9537 0
-5905 9537 0
-9517 9538 0
-5505 9538 0
-5525 9538 0
-5545 9538 0
-5586 9538 0
-5606 9538 0
-5626 9538 0
-5646 9538 0
-5666 9538 0
-5686 9538 0
-5706 9538 0
-5726 9538 0
-5746 9538 0
-5766 9538 0
-5786 9538 0
-5806 9538 0
-5826 9538 0
-5846 9538 0
-5866 9538 0
-5886 9538 0
-5906 9538 0
-9518 9539 0
-5506 9539 0
-5526 9539 0
-5546 9539 0
-5566 9539 0
-5607 9539 0
-5627 9539 0
-5647 9539 0
-5667 9539 0
-5687 9539 0
-5707 9539 0
-5727 9539 0
-5747 9539 0
-5767 9539 0
-5787 9539 0
-5807 9539 0
-5827 9539 0
-5847 9539 0
-5867 9539 0
-5887 9539 0
-5907 9539 0
-9519 9540 0
-5507 9540 0
-5527 9540 0
-5547 9540 0
-5567 9540 0
-5587 9540 0
-5628 9540 0
-5648 9540 0
-5668 9540 0
-5688 9540 0
-5708 9540 0
-5728 9540 0
-5748 9540 0
-5768 9540 0
-5788 9540 0
-5808 9540 0
-5828 9540 0
-5848 9540 0
-5868 9540 0
-5888 9540 0
-5908 9540 0
-9520 9541 0
-5508 9541 0
-5528 9541 0
-5548 9541 0
-5568 9541 0
-5588 9541 0
-5608 9541 0
-5649 9541 0
-5669 9541 0
-5689 9541 0
-5709 9541 0
-5729 9541 0
-5749 9541 0
-5769 9541 0
-5789 9541 0
-5809 9541 0
-5829 9541 0
-5849 9541 0
-5869 9541 0
-5889 9541 0
-5909 9541 0
-9521 9542 0
-5509 9542 0
-5529 9542 0
-5549 9542 0
-5569 9542 0
-5589 9542 0
-5609 9542 0
-5629 9542 0
-5670 9542 0
-5690 9542 0
-5710 9542 0
-5730 9542 0
-5750 9542 0
-5770 9542 0
-5790 9542 0
-5810 9542 0
-5830 9542 0
-5850 9542 0
-5870 9542 0
-5890 9542 0
-5910 9542 0
-9522 9543 0
-5510 9543 0
-5530 9543 0
-5550 9543 0
-5570 9543 0
-5590 9543 0
-5610 9543 0
-5630 9543 0
-5650 9543 0
-5691 9543 0
-5711 9543 0
-5731 9543 0
-5751 9543 0
-5771 9543 0
-5791 9543 0
-5811 9543 0
-5831 9543 0
-5851 9543 0
-5871 9543 0
-5891 9543 0
-5911 9543 0
-9523 9544 0
-5511 9544 0
-5531 9544 0
-5551 9544 0
-5571 9544 0
-5591 9544 0
-5611 9544 0
-5631 9544 0
-5651 9544 0
-5671 9544 0
-5712 9544 0
-5732 9544 0
-5752 9544 0
-5772 9544 0
-5792 9544 0
-5812 9544 0
-5832 9544 0
-5852 9544 0
-5872 9544 0
-5892 9544 0
-5912 9544 0
-9524 9545 0
-5512 9545 0
-5532 9545 0
-5552 9545 0
-5572 9545 0
-5592 9545 0
-5612 9545 0
-5632 9545 0
-5652 9545 0
-5672 9545 0
-5692 9545 0
-5733 9545 0
-5753 9545 0
-5773 9545 0
-5793 9545 0
-5813 9545 0
-5833 9545 0
-5853 9545 0
-5873 9545 0
-5893 9545 0
-5913 9545 0
-9525 9546 0
-5513 9546 0
-5533 9546 0
-5553 9546 0
-5573 9546 0
-5593 9546 0
-5613 9546 0
-5633 9546 0
-5653 9546 0
-5673 9546 0
-5693 9546 0
-5713 9546 0
-5754 9546 0
-5774 9546 0
-5794 9546 0
-5814 9546 0
-5834 9546 0
-5854 9546 0
-5874 9546 0
-5894 9546 0
-5914 9546 0
-9526 9547 0
-5514 9547 0
-5534 9547 0
-5554 9547 0
-5574 9547 0
-5594 9547 0
-5614 9547 0
-5634 9547 0
-5654 9547 0
-5674 9547 0
-5694 9547 0
-5714 9547 0
-5734 9547 0
-5775 9547 0
-5795 9547 0
-5815 9547 0
-5835 9547 0
-5855 9547 0
-5875 9547 0
-5895 9547 0
-5915 9547 0
-9527 9548 0
-5515 9548 0
-5535 9548 0
-5555 9548 0
-5575 9548 0
-5595 9548 0
-5615 9548 0
-5635 9548 0
-5655 9548 0
-5675 9548 0
-5695 9548 0
-5715 9548 0
-5735 9548 0
-5755 9548 0
-5796 9548 0
-5816 9548 0
-5836 9548 0
-5856 9548 0
-5876 9548 0
-5896 9548 0
-5916 9548 0
-9528 9549 0
-5516 9549 0
-5536 9549 0
-5556 9549 0
-5576 9549 0
-5596 9549 0
-5616 9549 0
-5636 9549 0
-5656 9549 0
-5676 9549 0
-5696 9549 0
-5716 9549 0
-5736 9549 0
-5756 9549 0
-5776 9549 0
-5817 9549 0
-5837 9549 0
-5857 9549 0
-5877 9549 0
-5897 9549 0
-5917 9549 0
-9529 9550 0
-5517 9550 0
-5537 9550 0
-5557 9550 0
-5577 9550 0
-5597 9550 0
-5617 9550 0
-5637 9550 0
-5657 9550 0
-5677 9550 0
-5697 9550 0
-5717 9550 0
-5737 9550 0
-5757 9550 0
-5777 9550 0
-5797 9550 0
-5838 9550 0
-5858 9550 0
-5878 9550 0
-5898 9550 0
-5918 9550 0
-9530 9551 0
-5518 9551 0
-5538 9551 0
-5558 9551 0
-5578 9551 0
-5598 9551 0
-5618 9551 0
-5638 9551 0
-5658 9551 0
-5678 9551 0
-5698 9551 0
-5718 9551 0
-5738 9551 0
-5758 9551 0
-5778 9551 0
-5798 9551 0
-5818 9551 0
-5859 9551 0
-5879 9551 0
-5899 9551 0
-5919 9551 0
-9531 9552 0
-5519 9552 0
-5539 9552 0
-5559 9552 0
-5579 9552 0
-5599 9552 0
-5619 9552 0
-5639 9552 0
-5659 9552 0
-5679 9552 0
-5699 9552 0
-5719 9552 0
-5739 9552 0
-5759 9552 0
-5779 9552 0
-5799 9552 0
-5819 9552 0
-5839 9552 0
-5880 9552 0
-5900 9552 0
-5920 9552 0
-9532 9553 0
-5520 9553 0
-5540 9553 0
-5560 9553 0
-5580 9553 0
-5600 9553 0
-5620 9553 0
-5640 9553 0
-5660 9553 0
-5680 9553 0
-5700 9553 0
-5720 9553 0
-5740 9553 0
-5760 9553 0
-5780 9553 0
-5800 9553 0
-5820 9553 0
-5840 9553 0
-5860 9553 0
-5901 9553 0
-5921 9553 0
-9533 9554 0
-5521 9554 0
-5541 9554 0
-5561 9554 0
-5581 9554 0
-5601 9554 0
-5621 9554 0
-5641 9554 0
-5661 9554 0
-5681 9554 0
-5701 9554 0
-5721 9554 0
-5741 9554 0
-5761 9554 0
-5781 9554 0
-5801 9554 0
-5821 9554 0
-5841 9554 0
-5861 9554 0
-5881 9554 0
-5922 9554 0
-9534 9555 0
-5522 9555 0
-5542 9555 0
-5562 9555 0
-5582 9555 0
-5602 9555 0
-5622 9555 0
-5642 9555 0
-5662 9555 0
-5682 9555 0
-5702 9555 0
-5722 9555 0
-5742 9555 0
-5762 9555 0
-5782 9555 0
-5802 9555 0
-5822 9555 0
-5842 9555 0
-5862 9555 0
-5882 9555 0
-5902 9555 0
-9535 9556 0
-5943 9556 0
-5963 9556 0
-5983 9556 0
-6003 9556 0
-6023 9556 0
-6043 9556 0
-6063 9556 0
-6083 9556 0
-6103 9556 0
-6123 9556 0
-6143 9556 0
-6163 9556 0
-6183 9556 0
-6203 9556 0
-6223 9556 0
-6243 9556 0
-6263 9556 0
-6283 9556 0
-6303 9556 0
-6323 9556 0
-9536 9557 0
-5923 9557 0
-5964 9557 0
-5984 9557 0
-6004 9557 0
-6024 9557 0
-6044 9557 0
-6064 9557 0
-6084 9557 0
-6104 9557 0
-6124 9557 0
-6144 9557 0
-6164 9557 0
-6184 9557 0
-6204 9557 0
-6224 9557 0
-6244 9557 0
-6264 9557 0
-6284 9557 0
-6304 9557 0
-6324 9557 0
-9537 9558 0
-5924 9558 0
-5944 9558 0
-5985 9558 0
-6005 9558 0
-6025 9558 0
-6045 9558 0
-6065 9558 0
-6085 9558 0
-6105 9558 0
-6125 9558 0
-6145 9558 0
-6165 9558 0
-6185 9558 0
-6205 9558 0
-6225 9558 0
-6245 9558 0
-6265 9558 0
-6285 9558 0
-6305 9558 0
-6325 9558 0
-9538 9559 0
-5925 9559 0
-5945 9559 0
-5965 9559 0
-6006 9559 0
-6026 9559 0
-6046 9559 0
-6066 9559 0
-6086 9559 0
-6106 9559 0
-6126 9559 0
-6146 9559 0
-6166 9559 0
-6186 9559 0
-6206 9559 0
-6226 9559 0
-6246 9559 0
-6266 9559 0
-6286 9559 0
-6306 9559 0
-6326 9559 0
-9539 9560 0
-5926 9560 0
-5946 9560 0
-5966 9560 0
-5986 9560 0
-6027 9560 0
-6047 9560 0
-6067 9560 0
-6087 9560 0
-6107 9560 0
-6127 9560 0
-6147 9560 0
-6167 9560 0
-6187 9560 0
-6207 9560 0
-6227 9560 0
-6247 9560 0
-6267 9560 0
-6287 9560 0
-6307 9560 0
-6327 9560 0
-9540 9561 0
-5927 9561 0
-5947 9561 0
-5967 9561 0
-5987 9561 0
-6007 9561 0
-6048 9561 0
-6068 9561 0
-6088 9561 0
-6108 9561 0
-6128 9561 0
-6148 9561 0
-6168 9561 0
-6188 9561 0
-6208 9561 0
-6228 9561 0
-6248 9561 0
-6268 9561 0
-6288 9561 0
-6308 9561 0
-6328 9561 0
-9541 9562 0
-5928 9562 0
-5948 9562 0
-5968 9562 0
-5988 9562 0
-6008 9562 0
-6028 9562 0
-6069 9562 0
-6089 9562 0
-6109 9562 0
-6129 9562 0
-6149 9562 0
-6169 9562 0
-6189 9562 0
-6209 9562 0
-6229 9562 0
-6249 9562 0
-6269 9562 0
-6289 9562 0
-6309 9562 0
-6329 9562 0
-9542 9563 0
-5929 9563 0
-5949 9563 0
-5969 9563 0
-5989 9563 0
-6009 9563 0
-6029 9563 0
-6049 9563 0
-6090 9563 0
-6110 9563 0
-6130 9563 0
-6150 9563 0
-6170 9563 0
-6190 9563 0
-6210 9563 0
-6230 9563 0
-6250 9563 0
-6270 9563 0
-6290 9563 0
-6310 9563 0
-6330 9563 0
-9543 9564 0
-5930 9564 0
-5950 9564 0
-5970 9564 0
-5990 9564 0
-6010 9564 0
-6030 9564 0
-6050 9564 0
-6070 9564 0
-6111 9564 0
-6131 9564 0
-6151 9564 0
-6171 9564 0
-6191 9564 0
-6211 9564 0
-6231 9564 0
-6251 9564 0
-6271 9564 0
-6291 9564 0
-6311 9564 0
-6331 9564 0
-9544 9565 0
-5931 9565 0
-5951 9565 0
-5971 9565 0
-5991 9565 0
-6011 9565 0
-6031 9565 0
-6051 9565 0
-6071 9565 0
-6091 9565 0
-6132 9565 0
-6152 9565 0
-6172 9565 0
-6192 9565 0
-6212 9565 0
-6232 9565 0
-6252 9565 0
-6272 9565 0
-6292 9565 0
-6312 9565 0
-6332 9565 0
-9545 9566 0
-5932 9566 0
-5952 9566 0
-5972 9566 0
-5992 9566 0
-6012 9566 0
-6032 9566 0
-6052 9566 0
-6072 9566 0
-6092 9566 0
-6112 9566 0
-6153 9566 0
-6173 9566 0
-6193 9566 0
-6213 9566 0
-6233 9566 0
-6253 9566 0
-6273 9566 0
-6293 9566 0
-6313 9566 0
-6333 9566 0
-9546 9567 0
-5933 9567 0
-5953 9567 0
-5973 9567 0
-5993 9567 0
-6013 9567 0
-6033 9567 0
-6053 9567 0
-6073 9567 0
-6093 9567 0
-6113 9567 0
-6133 9567 0
-6174 9567 0
-6194 9567 0
-6214 9567 0
-6234 9567 0
-6254 9567 0
-6274 9567 0
-6294 9567 0
-6314 9567 0
-6334 9567 0
-9547 9568 0
-5934 9568 0
-5954 9568 0
-5974 9568 0
-5994 9568 0
-6014 9568 0
-6034 9568 0
-6054 9568 0
-6074 9568 0
-6094 9568 0
-6114 9568 0
-6134 9568 0
-6154 9568 0
-6195 9568 0
-6215 9568 0
-6235 9568 0
-6255 9568 0
-6275 9568 0
-6295 9568 0
-6315 9568 0
-6335 9568 0
-9548 9569 0
-5935 9569 0
-5955 9569 0
-5975 9569 0
-5995 9569 0
-6015 9569 0
-6035 9569 0
-6055 9569 0
-6075 9569 0
-6095 9569 0
-6115 9569 0
-6135 9569 0
-6155 9569 0
-6175 9569 0
-6216 9569 0
-6236 9569 0
-6256 9569 0
-6276 9569 0
-6296 9569 0
-6316 9569 0
-6336 9569 0
-9549 9570 0
-5936 9570 0
-5956 9570 0
-5976 9570 0
-5996 9570 0
-6016 9570 0
-6036 9570 0
-6056 9570 0
-6076 9570 0
-6096 9570 0
-6116 9570 0
-6136 9570 0
-6156 9570 0
-6176 9570 0
-6196 9570 0
-6237 9570 0
-6257 9570 0
-6277 9570 0
-6297 9570 0
-6317 9570 0
-6337 9570 0
-9550 9571 0
-5937 9571 0
-5957 9571 0
-5977 9571 0
-5997 9571 0
-6017 9571 0
-6037 9571 0
-6057 9571 0
-6077 9571 0
-6097 9571 0
-6117 9571 0
-6137 9571 0
-6157 9571 0
-6177 9571 0
-6197 9571 0
-6217 9571 0
-6258 9571 0
-6278 9571 0
-6298 9571 0
-6318 9571 0
-6338 9571 0
-9551 9572 0
-5938 9572 0
-5958 9572 0
-5978 9572 0
-5998 9572 0
-6018 9572 0
-6038 9572 0
-6058 9572 0
-6078 9572 0
-6098 9572 0
-6118 9572 0
-6138 9572 0
-6158 9572 0
-6178 9572 0
-6198 9572 0
-6218 9572 0
-6238 9572 0
-6279 9572 0
-6299 9572 0
-6319 9572 0
-6339 9572 0
-9552 9573 0
-5939 9573 0
-5959 9573 0
-5979 9573 0
-5999 9573 0
-6019 9573 0
-6039 9573 0
-6059 9573 0
-6079 9573 0
-6099 9573 0
-6119 9573 0
-6139 9573 0
-6159 9573 0
-6179 9573 0
-6199 9573 0
-6219 9573 0
-6239 9573 0
-6259 9573 0
-6300 9573 0
-6320 9573 0
-6340 9573 0
-9553 9574 0
-5940 9574 0
-5960 9574 0
-5980 9574 0
-6000 9574 0
-6020 9574 0
-6040 9574 0
-6060 9574 0
-6080 9574 0
-6100 9574 0
-6120 9574 0
-6140 9574 0
-6160 9574 0
-6180 9574 0
-6200 9574 0
-6220 9574 0
-6240 9574 0
-6260 9574 0
-6280 9574 0
-6321 9574 0
-6341 9574 0
-9554 9575 0
-5941 9575 0
-5961 9575 0
-5981 9575 0
-6001 9575 0
-6021 9575 0
-6041 9575 0
-6061 9575 0
-6081 9575 0
-6101 9575 0
-6121 9575 0
-6141 9575 0
-6161 9575 0
-6181 9575 0
-6201 9575 0
-6221 9575 0
-6241 9575 0
-6261 9575 0
-6281 9575 0
-6301 9575 0
-6342 9575 0
-9555 9576 0
-5942 9576 0
-5962 9576 0
-5982 9576 0
-6002 9576 0
-6022 9576 0
-6042 9576 0
-6062 9576 0
-6082 9576 0
-6102 9576 0
-6122 9576 0
-6142 9576 0
-6162 9576 0
-6182 9576 0
-6202 9576 0
-6222 9576 0
-6242 9576 0
-6262 9576 0
-6282 9576 0
-6302 9576 0
-6322 9576 0
-9556 9577 0
-6363 9577 0
-6383 9577 0
-6403 9577 0
-6423 9577 0
-6443 9577 0
-6463 9577 0
-6483 9577 0
-6503 9577 0
-6523 9577 0
-6543 9577 0
-6563 9577 0
-6583 9577 0
-6603 9577 0
-6623 9577 0
-6643 9577 0
-6663 9577 0
-6683 9577 0
-6703 9577 0
-6723 9577 0
-6743 9577 0
-9557 9578 0
-6343 9578 0
-6384 9578 0
-6404 9578 0
-6424 9578 0
-6444 9578 0
-6464 9578 0
-6484 9578 0
-6504 9578 0
-6524 9578 0
-6544 9578 0
-6564 9578 0
-6584 9578 0
-6604 9578 0
-6624 9578 0
-6644 9578 0
-6664 9578 0
-6684 9578 0
-6704 9578 0
-6724 9578 0
-6744 9578 0
-9558 9579 0
-6344 9579 0
-6364 9579 0
-6405 9579 0
-6425 9579 0
-6445 9579 0
-6465 9579 0
-6485 9579 0
-6505 9579 0
-6525 9579 0
-6545 9579 0
-6565 9579 0
-6585 9579 0
-6605 9579 0
-6625 9579 0
-6645 9579 0
-6665 9579 0
-6685 9579 0
-6705 9579 0
-6725 9579 0
-6745 9579 0
-9559 9580 0
-6345 9580 0
-6365 9580 0
-6385 9580 0
-6426 9580 0
-6446 9580 0
-6466 9580 0
-6486 9580 0
-6506 9580 0
-6526 9580 0
-6546 9580 0
-6566 9580 0
-6586 9580 0
-6606 9580 0
-6626 9580 0
-6646 9580 0
-6666 9580 0
-6686 9580 0
-6706 9580 0
-6726 9580 0
-6746 9580 0
-9560 9581 0
-6346 9581 0
-6366 9581 0
-6386 9581 0
-6406 9581 0
-6447 9581 0
-6467 9581 0
-6487 9581 0
-6507 9581 0
-6527 9581 0
-6547 9581 0
-6567 9581 0
-6587 9581 0
-6607 9581 0
-6627 9581 0
-6647 9581 0
-6667 9581 0
-6687 9581 0
-6707 9581 0
-6727 9581 0
-6747 9581 0
-9561 9582 0
-6347 9582 0
-6367 9582 0
-6387 9582 0
-6407 9582 0
-6427 9582 0
-6468 9582 0
-6488 9582 0
-6508 9582 0
-6528 9582 0
-6548 9582 0
-6568 9582 0
-6588 9582 0
-6608 9582 0
-6628 9582 0
-6648 9582 0
-6668 9582 0
-6688 9582 0
-6708 9582 0
-6728 9582 0
-6748 9582 0
-9562 9583 0
-6348 9583 0
-6368 9583 0
-6388 9583 0
-6408 9583 0
-6428 9583 0
-6448 9583 0
-6489 9583 0
-6509 9583 0
-6529 9583 0
-6549 9583 0
-6569 9583 0
-6589 9583 0
-6609 9583 0
-6629 9583 0
-6649 9583 0
-6669 9583 0
-6689 9583 0
-6709 9583 0
-6729 9583 0
-6749 9583 0
-9563 9584 0
-6349 9584 0
-6369 9584 0
-6389 9584 0
-6409 9584 0
-6429 9584 0
-6449 9584 0
-6469 9584 0
-6510 9584 0
-6530 9584 0
-6550 9584 0
-6570 9584 0
-6590 9584 0
-6610 9584 0
-6630 9584 0
-6650 9584 0
-6670 9584 0
-6690 9584 0
-6710 9584 0
-6730 9584 0
-6750 9584 0
-9564 9585 0
-6350 9585 0
-6370 9585 0
-6390 9585 0
-6410 9585 0
-6430 9585 0
-6450 9585 0
-6470 9585 0
-6490 9585 0
-6531 9585 0
-6551 9585 0
-6571 9585 0
-6591 9585 0
-6611 9585 0
-6631 9585 0
-6651 9585 0
-6671 9585 0
-6691 9585 0
-6711 9585 0
-6731 9585 0
-6751 9585 0
-9565 9586 0
-6351 9586 0
-6371 9586 0
-6391 9586 0
-6411 9586 0
-6431 9586 0
-6451 9586 0
-6471 9586 0
-6491 9586 0
-6511 9586 0
-6552 9586 0
-6572 9586 0
-6592 9586 0
-6612 9586 0
-6632 9586 0
-6652 9586 0
-6672 9586 0
-6692 9586 0
-6712 9586 0
-6732 9586 0
-6752 9586 0
-9566 9587 0
-6352 9587 0
-6372 9587 0
-6392 9587 0
-6412 9587 0
-6432 9587 0
-6452 9587 0
-6472 9587 0
-6492 9587 0
-6512 9587 0
-6532 9587 0
-6573 9587 0
-6593 9587 0
-6613 9587 0
-6633 9587 0
-6653 9587 0
-6673 9587 0
-6693 9587 0
-6713 9587 0
-6733 9587 0
-6753 9587 0
-9567 9588 0
-6353 9588 0
-6373 9588 0
-6393 9588 0
-6413 9588 0
-6433 9588 0
-6453 9588 0
-6473 9588 0
-6493 9588 0
-6513 9588 0
-6533 9588 0
-6553 9588 0
-6594 9588 0
-6614 9588 0
-6634 9588 0
-6654 9588 0
-6674 9588 0
-6694 9588 0
-6714 9588 0
-6734 9588 0
-6754 9588 0
-9568 9589 0
-6354 9589 0
-6374 9589 0
-6394 9589 0
-6414 9589 0
-6434 9589 0
-6454 9589 0
-6474 9589 0
-6494 9589 0
-6514 9589 0
-6534 9589 0
-6554 9589 0
-6574 9589 0
-6615 9589 0
-6635 9589 0
-6655 9589 0
-6675 9589 0
-6695 9589 0
-6715 9589 0
-6735 9589 0
-6755 9589 0
-9569 9590 0
-6355 9590 0
-6375 9590 0
-6395 9590 0
-6415 9590 0
-6435 9590 0
-6455 9590 0
-6475 9590 0
-6495 9590 0
-6515 9590 0
-6535 9590 0
-6555 9590 0
-6575 9590 0
-6595 9590 0
-6636 9590 0
-6656 9590 0
-6676 9590 0
-6696 9590 0
-6716 9590 0
-6736 9590 0
-6756 9590 0
-9570 9591 0
-6356 9591 0
-6376 9591 0
-6396 9591 0
-6416 9591 0
-6436 9591 0
-6456 9591 0
-6476 9591 0
-6496 9591 0
-6516 9591 0
-6536 9591 0
-6556 9591 0
-6576 9591 0
-6596 9591 0
-6616 9591 0
-6657 9591 0
-6677 9591 0
-6697 9591 0
-6717 9591 0
-6737 9591 0
-6757 9591 0
-9571 9592 0
-6357 9592 0
-6377 9592 0
-6397 9592 0
-6417 9592 0
-6437 9592 0
-6457 9592 0
-6477 9592 0
-6497 9592 0
-6517 9592 0
-6537 9592 0
-6557 9592 0
-6577 9592 0
-6597 9592 0
-6617 9592 0
-6637 9592 0
-6678 9592 0
-6698 9592 0
-6718 9592 0
-6738 9592 0
-6758 9592 0
-9572 9593 0
-6358 9593 0
-6378 9593 0
-6398 9593 0
-6418 9593 0
-6438 9593 0
-6458 9593 0
-6478 9593 0
-6498 9593 0
-6518 9593 0
-6538 9593 0
-6558 9593 0
-6578 9593 0
-6598 9593 0
-6618 9593 0
-6638 9593 0
-6658 9593 0
-6699 9593 0
-6719 9593 0
-6739 9593 0
-6759 9593 0
-9573 9594 0
-6359 9594 0
-6379 9594 0
-6399 9594 0
-6419 9594 0
-6439 9594 0
-6459 9594 0
-6479 9594 0
-6499 9594 0
-6519 9594 0
-6539 9594 0
-6559 9594 0
-6579 9594 0
-6599 9594 0
-6619 9594 0
-6639 9594 0
-6659 9594 0
-6679 9594 0
-6720 9594 0
-6740 9594 0
-6760 9594 0
-9574 9595 0
-6360 9595 0
-6380 9595 0
-6400 9595 0
-6420 9595 0
-6440 9595 0
-6460 9595 0
-6480 9595 0
-6500 9595 0
-6520 9595 0
-6540 9595 0
-6560 9595 0
-6580 9595 0
-6600 9595 0
-6620 9595 0
-6640 9595 0
-6660 9595 0
-6680 9595 0
-6700 9595 0
-6741 9595 0
-6761 9595 0
-9575 9596 0
-6361 9596 0
-6381 9596 0
-6401 9596 0
-6421 9596 0
-6441 9596 0
-6461 9596 0
-6481 9596 0
-6501 9596 0
-6521 9596 0
-6541 9596 0
-6561 9596 0
-6581 9596 0
-6601 9596 0
-6621 9596 0
-6641 9596 0
-6661 9596 0
-6681 9596 0
-6701 9596 0
-6721 9596 0
-6762 9596 0
-9576 9597 0
-6362 9597 0
-6382 9597 0
-6402 9597 0
-6422 9597 0
-6442 9597 0
-6462 9597 0
-6482 9597 0
-6502 9597 0
-6522 9597 0
-6542 9597 0
-6562 9597 0
-6582 9597 0
-6602 9597 0
-6622 9597 0
-6642 9597 0
-6662 9597 0
-6682 9597 0
-6702 9597 0
-6722 9597 0
-6742 9597 0
-9577 9598 0
-6783 9598 0
-6803 9598 0
-6823 9598 0
-6843 9598 0
-6863 9598 0
-6883 9598 0
-6903 9598 0
-6923 9598 0
-6943 9598 0
-6963 9598 0
-6983 9598 0
-7003 9598 0
-7023 9598 0
-7043 9598 0
-7063 9598 0
-7083 9598 0
-7103 9598 0
-7123 9598 0
-7143 9598 0
-7163 9598 0
-9578 9599 0
-6763 9599 0
-6804 9599 0
-6824 9599 0
-6844 9599 0
-6864 9599 0
-6884 9599 0
-6904 9599 0
-6924 9599 0
-6944 9599 0
-6964 9599 0
-6984 9599 0
-7004 9599 0
-7024 9599 0
-7044 9599 0
-7064 9599 0
-7084 9599 0
-7104 9599 0
-7124 9599 0
-7144 9599 0
-7164 9599 0
-9579 9600 0
-6764 9600 0
-6784 9600 0
-6825 9600 0
-6845 9600 0
-6865 9600 0
-6885 9600 0
-6905 9600 0
-6925 9600 0
-6945 9600 0
-6965 9600 0
-6985 9600 0
-7005 9600 0
-7025 9600 0
-7045 9600 0
-7065 9600 0
-7085 9600 0
-7105 9600 0
-7125 9600 0
-7145 9600 0
-7165 9600 0
-9580 9601 0
-6765 9601 0
-6785 9601 0
-6805 9601 0
-6846 9601 0
-6866 9601 0
-6886 9601 0
-6906 9601 0
-6926 9601 0
-6946 9601 0
-6966 9601 0
-6986 9601 0
-7006 9601 0
-7026 9601 0
-7046 9601 0
-7066 9601 0
-7086 9601 0
-7106 9601 0
-7126 9601 0
-7146 9601 0
-7166 9601 0
-9581 9602 0
-6766 9602 0
-6786 9602 0
-6806 9602 0
-6826 9602 0
-6867 9602 0
-6887 9602 0
-6907 9602 0
-6927 9602 0
-6947 9602 0
-6967 9602 0
-6987 9602 0
-7007 9602 0
-7027 9602 0
-7047 9602 0
-7067 9602 0
-7087 9602 0
-7107 9602 0
-7127 9602 0
-7147 9602 0
-7167 9602 0
-9582 9603 0
-6767 9603 0
-6787 9603 0
-6807 9603 0
-6827 9603 0
-6847 9603 0
-6888 9603 0
-6908 9603 0
-6928 9603 0
-6948 9603 0
-6968 9603 0
-6988 9603 0
-7008 9603 0
-7028 9603 0
-7048 9603 0
-7068 9603 0
-7088 9603 0
-7108 9603 0
-7128 9603 0
-7148 9603 0
-7168 9603 0
-9583 9604 0
-6768 9604 0
-6788 9604 0
-6808 9604 0
-6828 9604 0
-6848 9604 0
-6868 9604 0
-6909 9604 0
-6929 9604 0
-6949 9604 0
-6969 9604 0
-6989 9604 0
-7009 9604 0
-7029 9604 0
-7049 9604 0
-7069 9604 0
-7089 9604 0
-7109 9604 0
-7129 9604 0
-7149 9604 0
-7169 9604 0
-9584 9605 0
-6769 9605 0
-6789 9605 0
-6809 9605 0
-6829 9605 0
-6849 9605 0
-6869 9605 0
-6889 9605 0
-6930 9605 0
-6950 9605 0
-6970 9605 0
-6990 9605 0
-7010 9605 0
-7030 9605 0
-7050 9605 0
-7070 9605 0
-7090 9605 0
-7110 9605 0
-7130 9605 0
-7150 9605 0
-7170 9605 0
-9585 9606 0
-6770 9606 0
-6790 9606 0
-6810 9606 0
-6830 9606 0
-6850 9606 0
-6870 9606 0
-6890 9606 0
-6910 9606 0
-6951 9606 0
-6971 9606 0
-6991 9606 0
-7011 9606 0
-7031 9606 0
-7051 9606 0
-7071 9606 0
-7091 9606 0
-7111 9606 0
-7131 9606 0
-7151 9606 0
-7171 9606 0
-9586 9607 0
-6771 9607 0
-6791 9607 0
-6811 9607 0
-6831 9607 0
-6851 9607 0
-6871 9607 0
-6891 9607 0
-6911 9607 0
-6931 9607 0
-6972 9607 0
-6992 9607 0
-7012 9607 0
-7032 9607 0
-7052 9607 0
-7072 9607 0
-7092 9607 0
-7112 9607 0
-7132 9607 0
-7152 9607 0
-7172 9607 0
-9587 9608 0
-6772 9608 0
-6792 9608 0
-6812 9608 0
-6832 9608 0
-6852 9608 0
-6872 9608 0
-6892 9608 0
-6912 9608 0
-6932 9608 0
-6952 9608 0
-6993 9608 0
-7013 9608 0
-7033 9608 0
-7053 9608 0
-7073 9608 0
-7093 9608 0
-7113 9608 0
-7133 9608 0
-7153 9608 0
-7173 9608 0
-9588 9609 0
-6773 9609 0
-6793 9609 0
-6813 9609 0
-6833 9609 0
-6853 9609 0
-6873 9609 0
-6893 9609 0
-6913 9609 0
-6933 9609 0
-6953 9609 0
-6973 9609 0
-7014 9609 0
-7034 9609 0
-7054 9609 0
-7074 9609 0
-7094 9609 0
-7114 9609 0
-7134 9609 0
-7154 9609 0
-7174 9609 0
-9589 9610 0
-6774 9610 0
-6794 9610 0
-6814 9610 0
-6834 9610 0
-6854 9610 0
-6874 9610 0
-6894 9610 0
-6914 9610 0
-6934 9610 0
-6954 9610 0
-6974 9610 0
-6994 9610 0
-7035 9610 0
-7055 9610 0
-7075 9610 0
-7095 9610 0
-7115 9610 0
-7135 9610 0
-7155 9610 0
-7175 9610 0
-9590 9611 0
-6775 9611 0
-6795 9611 0
-6815 9611 0
-6835 9611 0
-6855 9611 0
-6875 9611 0
-6895 9611 0
-6915 9611 0
-6935 9611 0
-6955 9611 0
-6975 9611 0
-6995 9611 0
-7015 9611 0
-7056 9611 0
-7076 9611 0
-7096 9611 0
-7116 9611 0
-7136 9611 0
-7156 9611 0
-7176 9611 0
-9591 9612 0
-6776 9612 0
-6796 9612 0
-6816 9612 0
-6836 9612 0
-6856 9612 0
-6876 9612 0
-6896 9612 0
-6916 9612 0
-6936 9612 0
-6956 9612 0
-6976 9612 0
-6996 9612 0
-7016 9612 0
-7036 9612 0
-7077 9612 0
-7097 9612 0
-7117 9612 0
-7137 9612 0
-7157 9612 0
-7177 9612 0
-9592 9613 0
-6777 9613 0
-6797 9613 0
-6817 9613 0
-6837 9613 0
-6857 9613 0
-6877 9613 0
-6897 9613 0
-6917 9613 0
-6937 9613 0
-6957 9613 0
-6977 9613 0
-6997 9613 0
-7017 9613 0
-7037 9613 0
-7057 9613 0
-7098 9613 0
-7118 9613 0
-7138 9613 0
-7158 9613 0
-7178 9613 0
-9593 9614 0
-6778 9614 0
-6798 9614 0
-6818 9614 0
-6838 9614 0
-6858 9614 0
-6878 9614 0
-6898 9614 0
-6918 9614 0
-6938 9614 0
-6958 9614 0
-6978 9614 0
-6998 9614 0
-7018 9614 0
-7038 9614 0
-7058 9614 0
-7078 9614 0
-7119 9614 0
-7139 9614 0
-7159 9614 0
-7179 9614 0
-9594 9615 0
-6779 9615 0
-6799 9615 0
-6819 9615 0
-6839 9615 0
-6859 9615 0
-6879 9615 0
-6899 9615 0
-6919 9615 0
-6939 9615 0
-6959 9615 0
-6979 9615 0
-6999 9615 0
-7019 9615 0
-7039 9615 0
-7059 9615 0
-7079 9615 0
-7099 9615 0
-7140 9615 0
-7160 9615 0
-7180 9615 0
-9595 9616 0
-6780 9616 0
-6800 9616 0
-6820 9616 0
-6840 9616 0
-6860 9616 0
-6880 9616 0
-6900 9616 0
-6920 9616 0
-6940 9616 0
-6960 9616 0
-6980 9616 0
-7000 9616 0
-7020 9616 0
-7040 9616 0
-7060 9616 0
-7080 9616 0
-7100 9616 0
-7120 9616 0
-7161 9616 0
-7181 9616 0
-9596 9617 0
-6781 9617 0
-6801 9617 0
-6821 9617 0
-6841 9617 0
-6861 9617 0
-6881 9617 0
-6901 9617 0
-6921 9617 0
-6941 9617 0
-6961 9617 0
-6981 9617 0
-7001 9617 0
-7021 9617 0
-7041 9617 0
-7061 9617 0
-7081 9617 0
-7101 9617 0
-7121 9617 0
-7141 9617 0
-7182 9617 0
-9597 9618 0
-6782 9618 0
-6802 9618 0
-6822 9618 0
-6842 9618 0
-6862 9618 0
-6882 9618 0
-6902 9618 0
-6922 9618 0
-6942 9618 0
-6962 9618 0
-6982 9618 0
-7002 9618 0
-7022 9618 0
-7042 9618 0
-7062 9618 0
-7082 9618 0
-7102 9618 0
-7122 9618 0
-7142 9618 0
-7162 9618 0
-9598 9619 0
-7203 9619 0
-7223 9619 0
-7243 9619 0
-7263 9619 0
-7283 9619 0
-7303 9619 0
-7323 9619 0
-7343 9619 0
-7363 9619 0
-7383 9619 0
-7403 9619 0
-7423 9619 0
-7443 9619 0
-7463 9619 0
-7483 9619 0
-7503 9619 0
-7523 9619 0
-7543 9619 0
-7563 9619 0
-7583 9619 0
-9599 9620 0
-7183 9620 0
-7224 9620 0
-7244 9620 0
-7264 9620 0
-7284 9620 0
-7304 9620 0
-7324 9620 0
-7344 9620 0
-7364 9620 0
-7384 9620 0
-7404 9620 0
-7424 9620 0
-7444 9620 0
-7464 9620 0
-7484 9620 0
-7504 9620 0
-7524 9620 0
-7544 9620 0
-7564 9620 0
-7584 9620 0
-9600 9621 0
-7184 9621 0
-7204 9621 0
-7245 9621 0
-7265 9621 0
-7285 9621 0
-7305 9621 0
-7325 9621 0
-7345 9621 0
-7365 9621 0
-7385 9621 0
-7405 9621 0
-7425 9621 0
-7445 9621 0
-7465 9621 0
-7485 9621 0
-7505 9621 0
-7525 9621 0
-7545 9621 0
-7565 9621 0
-7585 9621 0
-9601 9622 0
-7185 9622 0
-7205 9622 0
-7225 9622 0
-7266 9622 0
-7286 9622 0
-7306 9622 0
-7326 9622 0
-7346 9622 0
-7366 9622 0
-7386 9622 0
-7406 9622 0
-7426 9622 0
-7446 9622 0
-7466 9622 0
-7486 9622 0
-7506 9622 0
-7526 9622 0
-7546 9622 0
-7566 9622 0
-7586 9622 0
-9602 9623 0
-7186 9623 0
-7206 9623 0
-7226 9623 0
-7246 9623 0
-7287 9623 0
-7307 9623 0
-7327 9623 0
-7347 9623 0
-7367 9623 0
-7387 9623 0
-7407 9623 0
-7427 9623 0
-7447 9623 0
-7467 9623 0
-7487 9623 0
-7507 9623 0
-7527 9623 0
-7547 9623 0
-7567 9623 0
-7587 9623 0
-9603 9624 0
-7187 9624 0
-7207 9624 0
-7227 9624 0
-7247 9624 0
-7267 9624 0
-7308 9624 0
-7328 9624 0
-7348 9624 0
-7368 9624 0
-7388 9624 0
-7408 9624 0
-7428 9624 0
-7448 9624 0
-7468 9624 0
-7488 9624 0
-7508 9624 0
-7528 9624 0
-7548 9624 0
-7568 9624 0
-7588 9624 0
-9604 9625 0
-7188 9625 0
-7208 9625 0
-7228 9625 0
-7248 9625 0
-7268 9625 0
-7288 9625 0
-7329 9625 0
-7349 9625 0
-7369 9625 0
-7389 9625 0
-7409 9625 0
-7429 9625 0
-7449 9625 0
-7469 9625 0
-7489 9625 0
-7509 9625 0
-7529 9625 0
-7549 9625 0
-7569 9625 0
-7589 9625 0
-9605 9626 0
-7189 9626 0
-7209 9626 0
-7229 9626 0
-7249 9626 0
-7269 9626 0
-7289 9626 0
-7309 9626 0
-7350 9626 0
-7370 9626 0
-7390 9626 0
-7410 9626 0
-7430 9626 0
-7450 9626 0
-7470 9626 0
-7490 9626 0
-7510 9626 0
-7530 9626 0
-7550 9626 0
-7570 9626 0
-7590 9626 0
-9606 9627 0
-7190 9627 0
-7210 9627 0
-7230 9627 0
-7250 9627 0
-7270 9627 0
-7290 9627 0
-7310 9627 0
-7330 9627 0
-7371 9627 0
-7391 9627 0
-7411 9627 0
-7431 9627 0
-7451 9627 0
-7471 9627 0
-7491 9627 0
-7511 9627 0
-7531 9627 0
-7551 9627 0
-7571 9627 0
-7591 9627 0
-9607 9628 0
-7191 9628 0
-7211 9628 0
-7231 9628 0
-7251 9628 0
-7271 9628 0
-7291 9628 0
-7311 9628 0
-7331 9628 0
-7351 9628 0
-7392 9628 0
-7412 9628 0
-7432 9628 0
-7452 9628 0
-7472 9628 0
-7492 9628 0
-7512 9628 0
-7532 9628 0
-7552 9628 0
-7572 9628 0
-7592 9628 0
-9608 9629 0
-7192 9629 0
-7212 9629 0
-7232 9629 0
-7252 9629 0
-7272 9629 0
-7292 9629 0
-7312 9629 0
-7332 9629 0
-7352 9629 0
-7372 9629 0
-7413 9629 0
-7433 9629 0
-7453 9629 0
-7473 9629 0
-7493 9629 0
-7513 9629 0
-7533 9629 0
-7553 9629 0
-7573 9629 0
-7593 9629 0
-9609 9630 0
-7193 9630 0
-7213 9630 0
-7233 9630 0
-7253 9630 0
-7273 9630 0
-7293 9630 0
-7313 9630 0
-7333 9630 0
-7353 9630 0
-7373 9630 0
-7393 9630 0
-7434 9630 0
-7454 9630 0
-7474 9630 0
-7494 9630 0
-7514 9630 0
-7534 9630 0
-7554 9630 0
-7574 9630 0
-7594 9630 0
-9610 9631 0
-7194 9631 0
-7214 9631 0
-7234 9631 0
-7254 9631 0
-7274 9631 0
-7294 9631 0
-7314 9631 0
-7334 9631 0
-7354 9631 0
-7374 9631 0
-7394 9631 0
-7414 9631 0
-7455 9631 0
-7475 9631 0
-7495 9631 0
-7515 9631 0
-7535 9631 0
-7555 9631 0
-7575 9631 0
-7595 9631 0
-9611 9632 0
-7195 9632 0
-7215 9632 0
-7235 9632 0
-7255 9632 0
-7275 9632 0
-7295 9632 0
-7315 9632 0
-7335 9632 0
-7355 9632 0
-7375 9632 0
-7395 9632 0
-7415 9632 0
-7435 9632 0
-7476 9632 0
-7496 9632 0
-7516 9632 0
-7536 9632 0
-7556 9632 0
-7576 9632 0
-7596 9632 0
-9612 9633 0
-7196 9633 0
-7216 9633 0
-7236 9633 0
-7256 9633 0
-7276 9633 0
-7296 9633 0
-7316 9633 0
-7336 9633 0
-7356 9633 0
-7376 9633 0
-7396 9633 0
-7416 9633 0
-7436 9633 0
-7456 9633 0
-7497 9633 0
-7517 9633 0
-7537 9633 0
-7557 9633 0
-7577 9633 0
-7597 9633 0
-9613 9634 0
-7197 9634 0
-7217 9634 0
-7237 9634 0
-7257 9634 0
-7277 9634 0
-7297 9634 0
-7317 9634 0
-7337 9634 0
-7357 9634 0
-7377 9634 0
-7397 9634 0
-7417 9634 0
-7437 9634 0
-7457 9634 0
-7477 9634 0
-7518 9634 0
-7538 9634 0
-7558 9634 0
-7578 9634 0
-7598 9634 0
-9614 9635 0
-7198 9635 0
-7218 9635 0
-7238 9635 0
-7258 9635 0
-7278 9635 0
-7298 9635 0
-7318 9635 0
-7338 9635 0
-7358 9635 0
-7378 9635 0
-7398 9635 0
-7418 9635 0
-7438 9635 0
-7458 9635 0
-7478 9635 0
-7498 9635 0
-7539 9635 0
-7559 9635 0
-7579 9635 0
-7599 9635 0
-9615 9636 0
-7199 9636 0
-7219 9636 0
-7239 9636 0
-7259 9636 0
-7279 9636 0
-7299 9636 0
-7319 9636 0
-7339 9636 0
-7359 9636 0
-7379 9636 0
-7399 9636 0
-7419 9636 0
-7439 9636 0
-7459 9636 0
-7479 9636 0
-7499 9636 0
-7519 9636 0
-7560 9636 0
-7580 9636 0
-7600 9636 0
-9616 9637 0
-7200 9637 0
-7220 9637 0
-7240 9637 0
-7260 9637 0
-7280 9637 0
-7300 9637 0
-7320 9637 0
-7340 9637 0
-7360 9637 0
-7380 9637 0
-7400 9637 0
-7420 9637 0
-7440 9637 0
-7460 9637 0
-7480 9637 0
-7500 9637 0
-7520 9637 0
-7540 9637 0
-7581 9637 0
-7601 9637 0
-9617 9638 0
-7201 9638 0
-7221 9638 0
-7241 9638 0
-7261 9638 0
-7281 9638 0
-7301 9638 0
-7321 9638 0
-7341 9638 0
-7361 9638 0
-7381 9638 0
-7401 9638 0
-7421 9638 0
-7441 9638 0
-7461 9638 0
-7481 9638 0
-7501 9638 0
-7521 9638 0
-7541 9638 0
-7561 9638 0
-7602 9638 0
-9618 9639 0
-7202 9639 0
-7222 9639 0
-7242 9639 0
-7262 9639 0
-7282 9639 0
-7302 9639 0
-7322 9639 0
-7342 9639 0
-7362 9639 0
-7382 9639 0
-7402 9639 0
-7422 9639 0
-7442 9639 0
-7462 9639 0
-7482 9639 0
-7502 9639 0
-7522 9639 0
-7542 9639 0
-7562 9639 0
-7582 9639 0
-9619 9640 0
-7623 9640 0
-7643 9640 0
-7663 9640 0
-7683 9640 0
-7703 9640 0
-7723 9640 0
-7743 9640 0
-7763 9640 0
-7783 9640 0
-7803 9640 0
-7823 9640 0
-7843 9640 0
-7863 9640 0
-7883 9640 0
-7903 9640 0
-7923 9640 0
-7943 9640 0
-7963 9640 0
-7983 9640 0
-8003 9640 0
-9620 9641 0
-7603 9641 0
-7644 9641 0
-7664 9641 0
-7684 9641 0
-7704 9641 0
-7724 9641 0
-7744 9641 0
-7764 9641 0
-7784 9641 0
-7804 9641 0
-7824 9641 0
-7844 9641 0
-7864 9641 0
-7884 9641 0
-7904 9641 0
-7924 9641 0
-7944 9641 0
-7964 9641 0
-7984 9641 0
-8004 9641 0
-9621 9642 0
-7604 9642 0
-7624 9642 0
-7665 9642 0
-7685 9642 0
-7705 9642 0
-7725 9642 0
-7745 9642 0
-7765 9642 0
-7785 9642 0
-7805 9642 0
-7825 9642 0
-7845 9642 0
-7865 9642 0
-7885 9642 0
-7905 9642 0
-7925 9642 0
-7945 9642 0
-7965 9642 0
-7985 9642 0
-8005 9642 0
-9622 9643 0
-7605 9643 0
-7625 9643 0
-7645 9643 0
-7686 9643 0
-7706 9643 0
-7726 9643 0
-7746 9643 0
-7766 9643 0
-7786 9643 0
-7806 9643 0
-7826 9643 0
-7846 9643 0
-7866 9643 0
-7886 9643 0
-7906 9643 0
-7926 9643 0
-7946 9643 0
-7966 9643 0
-7986 9643 0
-8006 9643 0
-9623 9644 0
-7606 9644 0
-7626 9644 0
-7646 9644 0
-7666 9644 0
-7707 9644 0
-7727 9644 0
-7747 9644 0
-7767 9644 0
-7787 9644 0
-7807 9644 0
-7827 9644 0
-7847 9644 0
-7867 9644 0
-7887 9644 0
-7907 9644 0
-7927 9644 0
-7947 9644 0
-7967 9644 0
-7987 9644 0
-8007 9644 0
-9624 9645 0
-7607 9645 0
-7627 9645 0
-7647 9645 0
-7667 9645 0
-7687 9645 0
-7728 9645 0
-7748 9645 0
-7768 9645 0
-7788 9645 0
-7808 9645 0
-7828 9645 0
-7848 9645 0
-7868 9645 0
-7888 9645 0
-7908 9645 0
-7928 9645 0
-7948 9645 0
-7968 9645 0
-7988 9645 0
-8008 9645 0
-9625 9646 0
-7608 9646 0
-7628 9646 0
-7648 9646 0
-7668 9646 0
-7688 9646 0
-7708 9646 0
-7749 9646 0
-7769 9646 0
-7789 9646 0
-7809 9646 0
-7829 9646 0
-7849 9646 0
-7869 9646 0
-7889 9646 0
-7909 9646 0
-7929 9646 0
-7949 9646 0
-7969 9646 0
-7989 9646 0
-8009 9646 0
-9626 9647 0
-7609 9647 0
-7629 9647 0
-7649 9647 0
-7669 9647 0
-7689 9647 0
-7709 9647 0
-7729 9647 0
-7770 9647 0
-7790 9647 0
-7810 9647 0
-7830 9647 0
-7850 9647 0
-7870 9647 0
-7890 9647 0
-7910 9647 0
-7930 9647 0
-7950 9647 0
-7970 9647 0
-7990 9647 0
-8010 9647 0
-9627 9648 0
-7610 9648 0
-7630 9648 0
-7650 9648 0
-7670 9648 0
-7690 9648 0
-7710 9648 0
-7730 9648 0
-7750 9648 0
-7791 9648 0
-7811 9648 0
-7831 9648 0
-7851 9648 0
-7871 9648 0
-7891 9648 0
-7911 9648 0
-7931 9648 0
-7951 9648 0
-7971 9648 0
-7991 9648 0
-8011 9648 0
-9628 9649 0
-7611 9649 0
-7631 9649 0
-7651 9649 0
-7671 9649 0
-7691 9649 0
-7711 9649 0
-7731 9649 0
-7751 9649 0
-7771 9649 0
-7812 9649 0
-7832 9649 0
-7852 9649 0
-7872 9649 0
-7892 9649 0
-7912 9649 0
-7932 9649 0
-7952 9649 0
-7972 9649 0
-7992 9649 0
-8012 9649 0
-9629 9650 0
-7612 9650 0
-7632 9650 0
-7652 9650 0
-7672 9650 0
-7692 9650 0
-7712 9650 0
-7732 9650 0
-7752 9650 0
-7772 9650 0
-7792 9650 0
-7833 9650 0
-7853 9650 0
-7873 9650 0
-7893 9650 0
-7913 9650 0
-7933 9650 0
-7953 9650 0
-7973 9650 0
-7993 9650 0
-8013 9650 0
-9630 9651 0
-7613 9651 0
-7633 9651 0
-7653 9651 0
-7673 9651 0
-7693 9651 0
-7713 9651 0
-7733 9651 0
-7753 9651 0
-7773 9651 0
-7793 9651 0
-7813 9651 0
-7854 9651 0
-7874 9651 0
-7894 9651 0
-7914 9651 0
-7934 9651 0
-7954 9651 0
-7974 9651 0
-7994 9651 0
-8014 9651 0
-9631 9652 0
-7614 9652 0
-7634 9652 0
-7654 9652 0
-7674 9652 0
-7694 9652 0
-7714 9652 0
-7734 9652 0
-7754 9652 0
-7774 9652 0
-7794 9652 0
-7814 9652 0
-7834 9652 0
-7875 9652 0
-7895 9652 0
-7915 9652 0
-7935 9652 0
-7955 9652 0
-7975 9652 0
-7995 9652 0
-8015 9652 0
-9632 9653 0
-7615 9653 0
-7635 9653 0
-7655 9653 0
-7675 9653 0
-7695 9653 0
-7715 9653 0
-7735 9653 0
-7755 9653 0
-7775 9653 0
-7795 9653 0
-7815 9653 0
-7835 9653 0
-7855 9653 0
-7896 9653 0
-7916 9653 0
-7936 9653 0
-7956 9653 0
-7976 9653 0
-7996 9653 0
-8016 9653 0
-9633 9654 0
-7616 9654 0
-7636 9654 0
-7656 9654 0
-7676 9654 0
-7696 9654 0
-7716 9654 0
-7736 9654 0
-7756 9654 0
-7776 9654 0
-7796 9654 0
-7816 9654 0
-7836 9654 0
-7856 9654 0
-7876 9654 0
-7917 9654 0
-7937 9654 0
-7957 9654 0
-7977 9654 0
-7997 9654 0
-8017 9654 0
-9634 9655 0
-7617 9655 0
-7637 9655 0
-7657 9655 0
-7677 9655 0
-7697 9655 0
-7717 9655 0
-7737 9655 0
-7757 9655 0
-7777 9655 0
-7797 9655 0
-7817 9655 0
-7837 9655 0
-7857 9655 0
-7877 9655 0
-7897 9655 0
-7938 9655 0
-7958 9655 0
-7978 9655 0
-7998 9655 0
-8018 9655 0
-9635 9656 0
-7618 9656 0
-7638 9656 0
-7658 9656 0
-7678 9656 0
-7698 9656 0
-7718 9656 0
-7738 9656 0
-7758 9656 0
-7778 9656 0
-7798 9656 0
-7818 9656 0
-7838 9656 0
-7858 9656 0
-7878 9656 0
-7898 9656 0
-7918 9656 0
-7959 9656 0
-7979 9656 0
-7999 9656 0
-8019 9656 0
-9636 9657 0
-7619 9657 0
-7639 9657 0
-7659 9657 0
-7679 9657 0
-7699 9657 0
-7719 9657 0
-7739 9657 0
-7759 9657 0
-7779 9657 0
-7799 9657 0
-7819 9657 0
-7839 9657 0
-7859 9657 0
-7879 9657 0
-7899 9657 0
-7919 9657 0
-7939 9657 0
-7980 9657 0
-8000 9657 0
-8020 9657 0
-9637 9658 0
-7620 9658 0
-7640 9658 0
-7660 9658 0
-7680 9658 0
-7700 9658 0
-7720 9658 0
-7740 9658 0
-7760 9658 0
-7780 9658 0
-7800 9658 0
-7820 9658 0
-7840 9658 0
-7860 9658 0
-7880 9658 0
-7900 9658 0
-7920 9658 0
-7940 9658 0
-7960 9658 0
-8001 9658 0
-8021 9658 0
-9638 9659 0
-7621 9659 0
-7641 9659 0
-7661 9659 0
-7681 9659 0
-7701 9659 0
-7721 9659 0
-7741 9659 0
-7761 9659 0
-7781 9659 0
-7801 9659 0
-7821 9659 0
-7841 9659 0
-7861 9659 0
-7881 9659 0
-7901 9659 0
-7921 9659 0
-7941 9659 0
-7961 9659 0
-7981 9659 0
-8022 9659 0
-9639 9660 0
-7622 9660 0
-7642 9660 0
-7662 9660 0
-7682 9660 0
-7702 9660 0
-7722 9660 0
-7742 9660 0
-7762 9660 0
-7782 9660 0
-7802 9660 0
-7822 9660 0
-7842 9660 0
-7862 9660 0
-7882 9660 0
-7902 9660 0
-7922 9660 0
-7942 9660 0
-7962 9660 0
-7982 9660 0
-8002 9660 0
-9640 9661 0
-8043 9661 0
-8063 9661 0
-8083 9661 0
-8103 9661 0
-8123 9661 0
-8143 9661 0
-8163 9661 0
-8183 9661 0
-8203 9661 0
-8223 9661 0
-8243 9661 0
-8263 9661 0
-8283 9661 0
-8303 9661 0
-8323 9661 0
-8343 9661 0
-8363 9661 0
-8383 9661 0
-8403 9661 0
-8423 9661 0
-9641 9662 0
-8023 9662 0
-8064 9662 0
-8084 9662 0
-8104 9662 0
-8124 9662 0
-8144 9662 0
-8164 9662 0
-8184 9662 0
-8204 9662 0
-8224 9662 0
-8244 9662 0
-8264 9662 0
-8284 9662 0
-8304 9662 0
-8324 9662 0
-8344 9662 0
-8364 9662 0
-8384 9662 0
-8404 9662 0
-8424 9662 0
-9642 9663 0
-8024 9663 0
-8044 9663 0
-8085 9663 0
-8105 9663 0
-8125 9663 0
-8145 9663 0
-8165 9663 0
-8185 9663 0
-8205 9663 0
-8225 9663 0
-8245 9663 0
-8265 9663 0
-8285 9663 0
-8305 9663 0
-8325 9663 0
-8345 9663 0
-8365 9663 0
-8385 9663 0
-8405 9663 0
-8425 9663 0
-9643 9664 0
-8025 9664 0
-8045 9664 0
-8065 9664 0
-8106 9664 0
-8126 9664 0
-8146 9664 0
-8166 9664 0
-8186 9664 0
-8206 9664 0
-8226 9664 0
-8246 9664 0
-8266 9664 0
-8286 9664 0
-8306 9664 0
-8326 9664 0
-8346 9664 0
-8366 9664 0
-8386 9664 0
-8406 9664 0
-8426 9664 0
-9644 9665 0
-8026 9665 0
-8046 9665 0
-8066 9665 0
-8086 9665 0
-8127 9665 0
-8147 9665 0
-8167 9665 0
-8187 9665 0
-8207 9665 0
-8227 9665 0
-8247 9665 0
-8267 9665 0
-8287 9665 0
-8307 9665 0
-8327 9665 0
-8347 9665 0
-8367 9665 0
-8387 9665 0
-8407 9665 0
-8427 9665 0
-9645 9666 0
-8027 9666 0
-8047 9666 0
-8067 9666 0
-8087 9666 0
-8107 9666 0
-8148 9666 0
-8168 9666 0
-8188 9666 0
-8208 9666 0
-8228 9666 0
-8248 9666 0
-8268 9666 0
-8288 9666 0
-8308 9666 0
-8328 9666 0
-8348 9666 0
-8368 9666 0
-8388 9666 0
-8408 9666 0
-8428 9666 0
-9646 9667 0
-8028 9667 0
-8048 9667 0
-8068 9667 0
-8088 9667 0
-8108 9667 0
-8128 9667 0
-8169 9667 0
-8189 9667 0
-8209 9667 0
-8229 9667 0
-8249 9667 0
-8269 9667 0
-8289 9667 0
-8309 9667 0
-8329 9667 0
-8349 9667 0
-8369 9667 0
-8389 9667 0
-8409 9667 0
-8429 9667 0
-9647 9668 0
-8029 9668 0
-8049 9668 0
-8069 9668 0
-8089 9668 0
-8109 9668 0
-8129 9668 0
-8149 9668 0
-8190 9668 0
-8210 9668 0
-8230 9668 0
-8250 9668 0
-8270 9668 0
-8290 9668 0
-8310 9668 0
-8330 9668 0
-8350 9668 0
-8370 9668 0
-8390 9668 0
-8410 9668 0
-8430 9668 0
-9648 9669 0
-8030 9669 0
-8050 9669 0
-8070 9669 0
-8090 9669 0
-8110 9669 0
-8130 9669 0
-8150 9669 0
-8170 9669 0
-8211 9669 0
-8231 9669 0
-8251 9669 0
-8271 9669 0
-8291 9669 0
-8311 9669 0
-8331 9669 0
-8351 9669 0
-8371 9669 0
-8391 9669 0
-8411 9669 0
-8431 9669 0
-9649 9670 0
-8031 9670 0
-8051 9670 0
-8071 9670 0
-8091 9670 0
-8111 9670 0
-8131 9670 0
-8151 9670 0
-8171 9670 0
-8191 9670 0
-8232 9670 0
-8252 9670 0
-8272 9670 0
-8292 9670 0
-8312 9670 0
-8332 9670 0
-8352 9670 0
-8372 9670 0
-8392 9670 0
-8412 9670 0
-8432 9670 0
-9650 9671 0
-8032 9671 0
-8052 9671 0
-8072 9671 0
-8092 9671 0
-8112 9671 0
-8132 9671 0
-8152 9671 0
-8172 9671 0
-8192 9671 0
-8212 9671 0
-8253 9671 0
-8273 9671 0
-8293 9671 0
-8313 9671 0
-8333 9671 0
-8353 9671 0
-8373 9671 0
-8393 9671 0
-8413 9671 0
-8433 9671 0
-9651 9672 0
-8033 9672 0
-8053 9672 0
-8073 9672 0
-8093 9672 0
-8113 9672 0
-8133 9672 0
-8153 9672 0
-8173 9672 0
-8193 9672 0
-8213 9672 0
-8233 9672 0
-8274 9672 0
-8294 9672 0
-8314 9672 0
-8334 9672 0
-8354 9672 0
-8374 9672 0
-8394 9672 0
-8414 9672 0
-8434 9672 0
-9652 9673 0
-8034 9673 0
-8054 9673 0
-8074 9673 0
-8094 9673 0
-8114 9673 0
-8134 9673 0
-8154 9673 0
-8174 9673 0
-8194 9673 0
-8214 9673 0
-8234 9673 0
-8254 9673 0
-8295 9673 0
-8315 9673 0
-8335 9673 0
-8355 9673 0
-8375 9673 0
-8395 9673 0
-8415 9673 0
-8435 9673 0
-9653 9674 0
-8035 9674 0
-8055 9674 0
-8075 9674 0
-8095 9674 0
-8115 9674 0
-8135 9674 0
-8155 9674 0
-8175 9674 0
-8195 9674 0
-8215 9674 0
-8235 9674 0
-8255 9674 0
-8275 9674 0
-8316 9674 0
-8336 9674 0
-8356 9674 0
-8376 9674 0
-8396 9674 0
-8416 9674 0
-8436 9674 0
-9654 9675 0
-8036 9675 0
-8056 9675 0
-8076 9675 0
-8096 9675 0
-8116 9675 0
-8136 9675 0
-8156 9675 0
-8176 9675 0
-8196 9675 0
-8216 9675 0
-8236 9675 0
-8256 9675 0
-8276 9675 0
-8296 9675 0
-8337 9675 0
-8357 9675 0
-8377 9675 0
-8397 9675 0
-8417 9675 0
-8437 9675 0
-9655 9676 0
-8037 9676 0
-8057 9676 0
-8077 9676 0
-8097 9676 0
-8117 9676 0
-8137 9676 0
-8157 9676 0
-8177 9676 0
-8197 9676 0
-8217 9676 0
-8237 9676 0
-8257 9676 0
-8277 9676 0
-8297 9676 0
-8317 9676 0
-8358 9676 0
-8378 9676 0
-8398 9676 0
-8418 9676 0
-8438 9676 0
-9656 9677 0
-8038 9677 0
-8058 9677 0
-8078 9677 0
-8098 9677 0
-8118 9677 0
-8138 9677 0
-8158 9677 0
-8178 9677 0
-8198 9677 0
-8218 9677 0
-8238 9677 0
-8258 9677 0
-8278 9677 0
-8298 9677 0
-8318 9677 0
-8338 9677 0
-8379 9677 0
-8399 9677 0
-8419 9677 0
-8439 9677 0
-9657 9678 0
-8039 9678 0
-8059 9678 0
-8079 9678 0
-8099 9678 0
-8119 9678 0
-8139 9678 0
-8159 9678 0
-8179 9678 0
-8199 9678 0
-8219 9678 0
-8239 9678 0
-8259 9678 0
-8279 9678 0
-8299 9678 0
-8319 9678 0
-8339 9678 0
-8359 9678 0
-8400 9678 0
-8420 9678 0
-8440 9678 0
-9658 9679 0
-8040 9679 0
-8060 9679 0
-8080 9679 0
-8100 9679 0
-8120 9679 0
-8140 9679 0
-8160 9679 0
-8180 9679 0
-8200 9679 0
-8220 9679 0
-8240 9679 0
-8260 9679 0
-8280 9679 0
-8300 9679 0
-8320 9679 0
-8340 9679 0
-8360 9679 0
-8380 9679 0
-8421 9679 0
-8441 9679 0
-9659 9680 0
-8041 9680 0
-8061 9680 0
-8081 9680 0
-8101 9680 0
-8121 9680 0
-8141 9680 0
-8161 9680 0
-8181 9680 0
-8201 9680 0
-8221 9680 0
-8241 9680 0
-8261 9680 0
-8281 9680 0
-8301 9680 0
-8321 9680 0
-8341 9680 0
-8361 9680 0
-8381 9680 0
-8401 9680 0
-8442 9680 0
-9660 9681 0
-8042 9681 0
-8062 9681 0
-8082 9681 0
-8102 9681 0
-8122 9681 0
-8142 9681 0
-8162 9681 0
-8182 9681 0
-8202 9681 0
-8222 9681 0
-8242 9681 0
-8262 9681 0
-8282 9681 0
-8302 9681 0
-8322 9681 0
-8342 9681 0
-8362 9681 0
-8382 9681 0
-8402 9681 0
-8422 9681 0
-9661 9682 0
-8463 9682 0
-8483 9682 0
-8503 9682 0
-8523 9682 0
-8543 9682 0
-8563 9682 0
-8583 9682 0
-8603 9682 0
-8623 9682 0
-8643 9682 0
-8663 9682 0
-8683 9682 0
-8703 9682 0
-8723 9682 0
-8743 9682 0
-8763 9682 0
-8783 9682 0
-8803 9682 0
-8823 9682 0
-8843 9682 0
-9662 9683 0
-8443 9683 0
-8484 9683 0
-8504 9683 0
-8524 9683 0
-8544 9683 0
-8564 9683 0
-8584 9683 0
-8604 9683 0
-8624 9683 0
-8644 9683 0
-8664 9683 0
-8684 9683 0
-8704 9683 0
-8724 9683 0
-8744 9683 0
-8764 9683 0
-8784 9683 0
-8804 9683 0
-8824 9683 0
-8844 9683 0
-9663 9684 0
-8444 9684 0
-8464 9684 0
-8505 9684 0
-8525 9684 0
-8545 9684 0
-8565 9684 0
-8585 9684 0
-8605 9684 0
-8625 9684 0
-8645 9684 0
-8665 9684 0
-8685 9684 0
-8705 9684 0
-8725 9684 0
-8745 9684 0
-8765 9684 0
-8785 9684 0
-8805 9684 0
-8825 9684 0
-8845 9684 0
-9664 9685 0
-8445 9685 0
-8465 9685 0
-8485 9685 0
-8526 9685 0
-8546 9685 0
-8566 9685 0
-8586 9685 0
-8606 9685 0
-8626 9685 0
-8646 9685 0
-8666 9685 0
-8686 9685 0
-8706 9685 0
-8726 9685 0
-8746 9685 0
-8766 9685 0
-8786 9685 0
-8806 9685 0
-8826 9685 0
-8846 9685 0
-9665 9686 0
-8446 9686 0
-8466 9686 0
-8486 9686 0
-8506 9686 0
-8547 9686 0
-8567 9686 0
-8587 9686 0
-8607 9686 0
-8627 9686 0
-8647 9686 0
-8667 9686 0
-8687 9686 0
-8707 9686 0
-8727 9686 0
-8747 9686 0
-8767 9686 0
-8787 9686 0
-8807 9686 0
-8827 9686 0
-8847 9686 0
-9666 9687 0
-8447 9687 0
-8467 9687 0
-8487 9687 0
-8507 9687 0
-8527 9687 0
-8568 9687 0
-8588 9687 0
-8608 9687 0
-8628 9687 0
-8648 9687 0
-8668 9687 0
-8688 9687 0
-8708 9687 0
-8728 9687 0
-8748 9687 0
-8768 9687 0
-8788 9687 0
-8808 9687 0
-8828 9687 0
-8848 9687 0
-9667 9688 0
-8448 9688 0
-8468 9688 0
-8488 9688 0
-8508 9688 0
-8528 9688 0
-8548 9688 0
-8589 9688 0
-8609 9688 0
-8629 9688 0
-8649 9688 0
-8669 9688 0
-8689 9688 0
-8709 9688 0
-8729 9688 0
-8749 9688 0
-8769 9688 0
-8789 9688 0
-8809 9688 0
-8829 9688 0
-8849 9688 0
-9668 9689 0
-8449 9689 0
-8469 9689 0
-8489 9689 0
-8509 9689 0
-8529 9689 0
-8549 9689 0
-8569 9689 0
-8610 9689 0
-8630 9689 0
-8650 9689 0
-8670 9689 0
-8690 9689 0
-8710 9689 0
-8730 9689 0
-8750 9689 0
-8770 9689 0
-8790 9689 0
-8810 9689 0
-8830 9689 0
-8850 9689 0
-9669 9690 0
-8450 9690 0
-8470 9690 0
-8490 9690 0
-8510 9690 0
-8530 9690 0
-8550 9690 0
-8570 9690 0
-8590 9690 0
-8631 9690 0
-8651 9690 0
-8671 9690 0
-8691 9690 0
-8711 9690 0
-8731 9690 0
-8751 9690 0
-8771 9690 0
-8791 9690 0
-8811 9690 0
-8831 9690 0
-8851 9690 0
-9670 9691 0
-8451 9691 0
-8471 9691 0
-8491 9691 0
-8511 9691 0
-8531 9691 0
-8551 9691 0
-8571 9691 0
-8591 9691 0
-8611 9691 0
-8652 9691 0
-8672 9691 0
-8692 9691 0
-8712 9691 0
-8732 9691 0
-8752 9691 0
-8772 9691 0
-8792 9691 0
-8812 9691 0
-8832 9691 0
-8852 9691 0
-9671 9692 0
-8452 9692 0
-8472 9692 0
-8492 9692 0
-8512 9692 0
-8532 9692 0
-8552 9692 0
-8572 9692 0
-8592 9692 0
-8612 9692 0
-8632 9692 0
-8673 9692 0
-8693 9692 0
-8713 9692 0
-8733 9692 0
-8753 9692 0
-8773 9692 0
-8793 9692 0
-8813 9692 0
-8833 9692 0
-8853 9692 0
-9672 9693 0
-8453 9693 0
-8473 9693 0
-8493 9693 0
-8513 9693 0
-8533 9693 0
-8553 9693 0
-8573 9693 0
-8593 9693 0
-8613 9693 0
-8633 9693 0
-8653 9693 0
-8694 9693 0
-8714 9693 0
-8734 9693 0
-8754 9693 0
-8774 9693 0
-8794 9693 0
-8814 9693 0
-8834 9693 0
-8854 9693 0
-9673 9694 0
-8454 9694 0
-8474 9694 0
-8494 9694 0
-8514 9694 0
-8534 9694 0
-8554 9694 0
-8574 9694 0
-8594 9694 0
-8614 9694 0
-8634 9694 0
-8654 9694 0
-8674 9694 0
-8715 9694 0
-8735 9694 0
-8755 9694 0
-8775 9694 0
-8795 9694 0
-8815 9694 0
-8835 9694 0
-8855 9694 0
-9674 9695 0
-8455 9695 0
-8475 9695 0
-8495 9695 0
-8515 9695 0
-8535 9695 0
-8555 9695 0
-8575 9695 0
-8595 9695 0
-8615 9695 0
-8635 9695 0
-8655 9695 0
-8675 9695 0
-8695 9695 0
-8736 9695 0
-8756 9695 0
-8776 9695 0
-8796 9695 0
-8816 9695 0
-8836 9695 0
-8856 9695 0
-9675 9696 0
-8456 9696 0
-8476 9696 0
-8496 9696 0
-8516 9696 0
-8536 9696 0
-8556 9696 0
-8576 9696 0
-8596 9696 0
-8616 9696 0
-8636 9696 0
-8656 9696 0
-8676 9696 0
-8696 9696 0
-8716 9696 0
-8757 9696 0
-8777 9696 0
-8797 9696 0
-8817 9696 0
-8837 9696 0
-8857 9696 0
-9676 9697 0
-8457 9697 0
-8477 9697 0
-8497 9697 0
-8517 9697 0
-8537 9697 0
-8557 9697 0
-8577 9697 0
-8597 9697 0
-8617 9697 0
-8637 9697 0
-8657 9697 0
-8677 9697 0
-8697 9697 0
-8717 9697 0
-8737 9697 0
-8778 9697 0
-8798 9697 0
-8818 9697 0
-8838 9697 0
-8858 9697 0
-9677 9698 0
-8458 9698 0
-8478 9698 0
-8498 9698 0
-8518 9698 0
-8538 9698 0
-8558 9698 0
-8578 9698 0
-8598 9698 0
-8618 9698 0
-8638 9698 0
-8658 9698 0
-8678 9698 0
-8698 9698 0
-8718 9698 0
-8738 9698 0
-8758 9698 0
-8799 9698 0
-8819 9698 0
-8839 9698 0
-8859 9698 0
-9678 9699 0
-8459 9699 0
-8479 9699 0
-8499 9699 0
-8519 9699 0
-8539 9699 0
-8559 9699 0
-8579 9699 0
-8599 9699 0
-8619 9699 0
-8639 9699 0
-8659 9699 0
-8679 9699 0
-8699 9699 0
-8719 9699 0
-8739 9699 0
-8759 9699 0
-8779 9699 0
-8820 9699 0
-8840 9699 0
-8860 9699 0
-9679 9700 0
-8460 9700 0
-8480 9700 0
-8500 9700 0
-8520 9700 0
-8540 9700 0
-8560 9700 0
-8580 9700 0
-8600 9700 0
-8620 9700 0
-8640 9700 0
-8660 9700 0
-8680 9700 0
-8700 9700 0
-8720 9700 0
-8740 9700 0
-8760 9700 0
-8780 9700 0
-8800 9700 0
-8841 9700 0
-8861 9700 0
-9680 9701 0
-8461 9701 0
-8481 9701 0
-8501 9701 0
-8521 9701 0
-8541 9701 0
-8561 9701 0
-8581 9701 0
-8601 9701 0
-8621 9701 0
-8641 9701 0
-8661 9701 0
-8681 9701 0
-8701 9701 0
-8721 9701 0
-8741 9701 0
-8761 9701 0
-8781 9701 0
-8801 9701 0
-8821 9701 0
-8862 9701 0
-9681 9702 0
-8462 9702 0
-8482 9702 0
-8502 9702 0
-8522 9702 0
-8542 9702 0
-8562 9702 0
-8582 9702 0
-8602 9702 0
-8622 9702 0
-8642 9702 0
-8662 9702 0
-8682 9702 0
-8702 9702 0
-8722 9702 0
-8742 9702 0
-8762 9702 0
-8782 9702 0
-8802 9702 0
-8822 9702 0
-8842 9702 0
-9682 9703 0
-8883 9703 0
-8903 9703 0
-8923 9703 0
-8943 9703 0
-8963 9703 0
-8983 9703 0
-9003 9703 0
-9023 9703 0
-9043 9703 0
-9063 9703 0
-9083 9703 0
-9103 9703 0
-9123 9703 0
-9143 9703 0
-9163 9703 0
-9183 9703 0
-9203 9703 0
-9223 9703 0
-9243 9703 0
-9263 9703 0
-9683 9704 0
-8863 9704 0
-8904 9704 0
-8924 9704 0
-8944 9704 0
-8964 9704 0
-8984 9704 0
-9004 9704 0
-9024 9704 0
-9044 9704 0
-9064 9704 0
-9084 9704 0
-9104 9704 0
-9124 9704 0
-9144 9704 0
-9164 9704 0
-9184 9704 0
-9204 9704 0
-9224 9704 0
-9244 9704 0
-9264 9704 0
-9684 9705 0
-8864 9705 0
-8884 9705 0
-8925 9705 0
-8945 9705 0
-8965 9705 0
-8985 9705 0
-9005 9705 0
-9025 9705 0
-9045 9705 0
-9065 9705 0
-9085 9705 0
-9105 9705 0
-9125 9705 0
-9145 9705 0
-9165 9705 0
-9185 9705 0
-9205 9705 0
-9225 9705 0
-9245 9705 0
-9265 9705 0
-9685 9706 0
-8865 9706 0
-8885 9706 0
-8905 9706 0
-8946 9706 0
-8966 9706 0
-8986 9706 0
-9006 9706 0
-9026 9706 0
-9046 9706 0
-9066 9706 0
-9086 9706 0
-9106 9706 0
-9126 9706 0
-9146 9706 0
-9166 9706 0
-9186 9706 0
-9206 9706 0
-9226 9706 0
-9246 9706 0
-9266 9706 0
-9686 9707 0
-8866 9707 0
-8886 9707 0
-8906 9707 0
-8926 9707 0
-8967 9707 0
-8987 9707 0
-9007 9707 0
-9027 9707 0
-9047 9707 0
-9067 9707 0
-9087 9707 0
-9107 9707 0
-9127 9707 0
-9147 9707 0
-9167 9707 0
-9187 9707 0
-9207 9707 0
-9227 9707 0
-9247 9707 0
-9267 9707 0
-9687 9708 0
-8867 9708 0
-8887 9708 0
-8907 9708 0
-8927 9708 0
-8947 9708 0
-8988 9708 0
-9008 9708 0
-9028 9708 0
-9048 9708 0
-9068 9708 0
-9088 9708 0
-9108 9708 0
-9128 9708 0
-9148 9708 0
-9168 9708 0
-9188 9708 0
-9208 9708 0
-9228 9708 0
-9248 9708 0
-9268 9708 0
-9688 9709 0
-8868 9709 0
-8888 9709 0
-8908 9709 0
-8928 9709 0
-8948 9709 0
-8968 9709 0
-9009 9709 0
-9029 9709 0
-9049 9709 0
-9069 9709 0
-9089 9709 0
-9109 9709 0
-9129 9709 0
-9149 9709 0
-9169 9709 0
-9189 9709 0
-9209 9709 0
-9229 9709 0
-9249 9709 0
-9269 9709 0
-9689 9710 0
-8869 9710 0
-8889 9710 0
-8909 9710 0
-8929 9710 0
-8949 9710 0
-8969 9710 0
-8989 9710 0
-9030 9710 0
-9050 9710 0
-9070 9710 0
-9090 9710 0
-9110 9710 0
-9130 9710 0
-9150 9710 0
-9170 9710 0
-9190 9710 0
-9210 9710 0
-9230 9710 0
-9250 9710 0
-9270 9710 0
-9690 9711 0
-8870 9711 0
-8890 9711 0
-8910 9711 0
-8930 9711 0
-8950 9711 0
-8970 9711 0
-8990 9711 0
-9010 9711 0
-9051 9711 0
-9071 9711 0
-9091 9711 0
-9111 9711 0
-9131 9711 0
-9151 9711 0
-9171 9711 0
-9191 9711 0
-9211 9711 0
-9231 9711 0
-9251 9711 0
-9271 9711 0
-9691 9712 0
-8871 9712 0
-8891 9712 0
-8911 9712 0
-8931 9712 0
-8951 9712 0
-8971 9712 0
-8991 9712 0
-9011 9712 0
-9031 9712 0
-9072 9712 0
-9092 9712 0
-9112 9712 0
-9132 9712 0
-9152 9712 0
-9172 9712 0
-9192 9712 0
-9212 9712 0
-9232 9712 0
-9252 9712 0
-9272 9712 0
-9692 9713 0
-8872 9713 0
-8892 9713 0
-8912 9713 0
-8932 9713 0
-8952 9713 0
-8972 9713 0
-8992 9713 0
-9012 9713 0
-9032 9713 0
-9052 9713 0
-9093 9713 0
-9113 9713 0
-9133 9713 0
-9153 9713 0
-9173 9713 0
-9193 9713 0
-9213 9713 0
-9233 9713 0
-9253 9713 0
-9273 9713 0
-9693 9714 0
-8873 9714 0
-8893 9714 0
-8913 9714 0
-8933 9714 0
-8953 9714 0
-8973 9714 0
-8993 9714 0
-9013 9714 0
-9033 9714 0
-9053 9714 0
-9073 9714 0
-9114 9714 0
-9134 9714 0
-9154 9714 0
-9174 9714 0
-9194 9714 0
-9214 9714 0
-9234 9714 0
-9254 9714 0
-9274 9714 0
-9694 9715 0
-8874 9715 0
-8894 9715 0
-8914 9715 0
-8934 9715 0
-8954 9715 0
-8974 9715 0
-8994 9715 0
-9014 9715 0
-9034 9715 0
-9054 9715 0
-9074 9715 0
-9094 9715 0
-9135 9715 0
-9155 9715 0
-9175 9715 0
-9195 9715 0
-9215 9715 0
-9235 9715 0
-9255 9715 0
-9275 9715 0
-9695 9716 0
-8875 9716 0
-8895 9716 0
-8915 9716 0
-8935 9716 0
-8955 9716 0
-8975 9716 0
-8995 9716 0
-9015 9716 0
-9035 9716 0
-9055 9716 0
-9075 9716 0
-9095 9716 0
-9115 9716 0
-9156 9716 0
-9176 9716 0
-9196 9716 0
-9216 9716 0
-9236 9716 0
-9256 9716 0
-9276 9716 0
-9696 9717 0
-8876 9717 0
-8896 9717 0
-8916 9717 0
-8936 9717 0
-8956 9717 0
-8976 9717 0
-8996 9717 0
-9016 9717 0
-9036 9717 0
-9056 9717 0
-9076 9717 0
-9096 9717 0
-9116 9717 0
-9136 9717 0
-9177 9717 0
-9197 9717 0
-9217 9717 0
-9237 9717 0
-9257 9717 0
-9277 9717 0
-9697 9718 0
-8877 9718 0
-8897 9718 0
-8917 9718 0
-8937 9718 0
-8957 9718 0
-8977 9718 0
-8997 9718 0
-9017 9718 0
-9037 9718 0
-9057 9718 0
-9077 9718 0
-9097 9718 0
-9117 9718 0
-9137 9718 0
-9157 9718 0
-9198 9718 0
-9218 9718 0
-9238 9718 0
-9258 9718 0
-9278 9718 0
-9698 9719 0
-8878 9719 0
-8898 9719 0
-8918 9719 0
-8938 9719 0
-8958 9719 0
-8978 9719 0
-8998 9719 0
-9018 9719 0
-9038 9719 0
-9058 9719 0
-9078 9719 0
-9098 9719 0
-9118 9719 0
-9138 9719 0
-9158 9719 0
-9178 9719 0
-9219 9719 0
-9239 9719 0
-9259 9719 0
-9279 9719 0
-9699 9720 0
-8879 9720 0
-8899 9720 0
-8919 9720 0
-8939 9720 0
-8959 9720 0
-8979 9720 0
-8999 9720 0
-9019 9720 0
-9039 9720 0
-9059 9720 0
-9079 9720 0
-9099 9720 0
-9119 9720 0
-9139 9720 0
-9159 9720 0
-9179 9720 0
-9199 9720 0
-9240 9720 0
-9260 9720 0
-9280 9720 0
-9700 9721 0
-8880 9721 0
-8900 9721 0
-8920 9721 0
-8940 9721 0
-8960 9721 0
-8980 9721 0
-9000 9721 0
-9020 9721 0
-9040 9721 0
-9060 9721 0
-9080 9721 0
-9100 9721 0
-9120 9721 0
-9140 9721 0
-9160 9721 0
-9180 9721 0
-9200 9721 0
-9220 9721 0
-9261 9721 0
-9281 9721 0
-9701 9722 0
-8881 9722 0
-8901 9722 0
-8921 9722 0
-8941 9722 0
-8961 9722 0
-8981 9722 0
-9001 9722 0
-9021 9722 0
-9041 9722 0
-9061 9722 0
-9081 9722 0
-9101 9722 0
-9121 9722 0
-9141 9722 0
-9161 9722 0
-9181 9722 0
-9201 9722 0
-9221 9722 0
-9241 9722 0
-9282 9722 0
-9702 9723 0
-8882 9723 0
-8902 9723 0
-8922 9723 0
-8942 9723 0
-8962 9723 0
-8982 9723 0
-9002 9723 0
-9022 9723 0
-9042 9723 0
-9062 9723 0
-9082 9723 0
-9102 9723 0
-9122 9723 0
-9142 9723 0
-9162 9723 0
-9182 9723 0
-9202 9723 0
-9222 9723 0
-9242 9723 0
-9262 9723 0
9703 0
9704 0
9705 0
9706 0
9707 0
9708 0
9709 0
9710 0
9711 0
9712 0
9713 0
9714 0
9715 0
9716 0
9717 0
9718 0
9719 0
9720 0
9721 0
9722 0
9723 0
