c n=21 tail-8 SAT calibration target -- CLASS CONSTRAINTS ONLY.
c Expected: SAT. Source: sol/sol_reply_84_math11.md sec 6.2.
c Generated by search/sat/encode_tail8_n21.py -- do not hand-edit.
p cnf 672 14806
1 2 3 4 5 6 7 8 9 10 11 12 13 14 15 16 17 18 19 20 211 0
-1 -2 0
-1 -3 0
-1 -4 0
-1 -5 0
-1 -6 0
-1 -7 0
-1 -8 0
-1 -9 0
-1 -10 0
-1 -11 0
-1 -12 0
-1 -13 0
-1 -14 0
-1 -15 0
-1 -16 0
-1 -17 0
-1 -18 0
-1 -19 0
-1 -20 0
-1 -211 0
-2 -3 0
-2 -4 0
-2 -5 0
-2 -6 0
-2 -7 0
-2 -8 0
-2 -9 0
-2 -10 0
-2 -11 0
-2 -12 0
-2 -13 0
-2 -14 0
-2 -15 0
-2 -16 0
-2 -17 0
-2 -18 0
-2 -19 0
-2 -20 0
-2 -211 0
-3 -4 0
-3 -5 0
-3 -6 0
-3 -7 0
-3 -8 0
-3 -9 0
-3 -10 0
-3 -11 0
-3 -12 0
-3 -13 0
-3 -14 0
-3 -15 0
-3 -16 0
-3 -17 0
-3 -18 0
-3 -19 0
-3 -20 0
-3 -211 0
-4 -5 0
-4 -6 0
-4 -7 0
-4 -8 0
-4 -9 0
-4 -10 0
-4 -11 0
-4 -12 0
-4 -13 0
-4 -14 0
-4 -15 0
-4 -16 0
-4 -17 0
-4 -18 0
-4 -19 0
-4 -20 0
-4 -211 0
-5 -6 0
-5 -7 0
-5 -8 0
-5 -9 0
-5 -10 0
-5 -11 0
-5 -12 0
-5 -13 0
-5 -14 0
-5 -15 0
-5 -16 0
-5 -17 0
-5 -18 0
-5 -19 0
-5 -20 0
-5 -211 0
-6 -7 0
-6 -8 0
-6 -9 0
-6 -10 0
-6 -11 0
-6 -12 0
-6 -13 0
-6 -14 0
-6 -15 0
-6 -16 0
-6 -17 0
-6 -18 0
-6 -19 0
-6 -20 0
-6 -211 0
-7 -8 0
-7 -9 0
-7 -10 0
-7 -11 0
-7 -12 0
-7 -13 0
-7 -14 0
-7 -15 0
-7 -16 0
-7 -17 0
-7 -18 0
-7 -19 0
-7 -20 0
-7 -211 0
-8 -9 0
-8 -10 0
-8 -11 0
-8 -12 0
-8 -13 0
-8 -14 0
-8 -15 0
-8 -16 0
-8 -17 0
-8 -18 0
-8 -19 0
-8 -20 0
-8 -211 0
-9 -10 0
-9 -11 0
-9 -12 0
-9 -13 0
-9 -14 0
-9 -15 0
-9 -16 0
-9 -17 0
-9 -18 0
-9 -19 0
-9 -20 0
-9 -211 0
-10 -11 0
-10 -12 0
-10 -13 0
-10 -14 0
-10 -15 0
-10 -16 0
-10 -17 0
-10 -18 0
-10 -19 0
-10 -20 0
-10 -211 0
-11 -12 0
-11 -13 0
-11 -14 0
-11 -15 0
-11 -16 0
-11 -17 0
-11 -18 0
-11 -19 0
-11 -20 0
-11 -211 0
-12 -13 0
-12 -14 0
-12 -15 0
-12 -16 0
-12 -17 0
-12 -18 0
-12 -19 0
-12 -20 0
-12 -211 0
-13 -14 0
-13 -15 0
-13 -16 0
-13 -17 0
-13 -18 0
-13 -19 0
-13 -20 0
-13 -211 0
-14 -15 0
-14 -16 0
-14 -17 0
-14 -18 0
-14 -19 0
-14 -20 0
-14 -211 0
-15 -16 0
-15 -17 0
-15 -18 0
-15 -19 0
-15 -20 0
-15 -211 0
-16 -17 0
-16 -18 0
-16 -19 0
-16 -20 0
-16 -211 0
-17 -18 0
-17 -19 0
-17 -20 0
-17 -211 0
-18 -19 0
-18 -20 0
-18 -211 0
-19 -20 0
-19 -211 0
-20 -211 0
1 21 22 23 24 25 26 27 28 29 30 31 32 33 34 35 36 37 38 39 212 0
-1 -21 0
-1 -22 0
-1 -23 0
-1 -24 0
-1 -25 0
-1 -26 0
-1 -27 0
-1 -28 0
-1 -29 0
-1 -30 0
-1 -31 0
-1 -32 0
-1 -33 0
-1 -34 0
-1 -35 0
-1 -36 0
-1 -37 0
-1 -38 0
-1 -39 0
-1 -212 0
-21 -22 0
-21 -23 0
-21 -24 0
-21 -25 0
-21 -26 0
-21 -27 0
-21 -28 0
-21 -29 0
-21 -30 0
-21 -31 0
-21 -32 0
-21 -33 0
-21 -34 0
-21 -35 0
-21 -36 0
-21 -37 0
-21 -38 0
-21 -39 0
-21 -212 0
-22 -23 0
-22 -24 0
-22 -25 0
-22 -26 0
-22 -27 0
-22 -28 0
-22 -29 0
-22 -30 0
-22 -31 0
-22 -32 0
-22 -33 0
-22 -34 0
-22 -35 0
-22 -36 0
-22 -37 0
-22 -38 0
-22 -39 0
-22 -212 0
-23 -24 0
-23 -25 0
-23 -26 0
-23 -27 0
-23 -28 0
-23 -29 0
-23 -30 0
-23 -31 0
-23 -32 0
-23 -33 0
-23 -34 0
-23 -35 0
-23 -36 0
-23 -37 0
-23 -38 0
-23 -39 0
-23 -212 0
-24 -25 0
-24 -26 0
-24 -27 0
-24 -28 0
-24 -29 0
-24 -30 0
-24 -31 0
-24 -32 0
-24 -33 0
-24 -34 0
-24 -35 0
-24 -36 0
-24 -37 0
-24 -38 0
-24 -39 0
-24 -212 0
-25 -26 0
-25 -27 0
-25 -28 0
-25 -29 0
-25 -30 0
-25 -31 0
-25 -32 0
-25 -33 0
-25 -34 0
-25 -35 0
-25 -36 0
-25 -37 0
-25 -38 0
-25 -39 0
-25 -212 0
-26 -27 0
-26 -28 0
-26 -29 0
-26 -30 0
-26 -31 0
-26 -32 0
-26 -33 0
-26 -34 0
-26 -35 0
-26 -36 0
-26 -37 0
-26 -38 0
-26 -39 0
-26 -212 0
-27 -28 0
-27 -29 0
-27 -30 0
-27 -31 0
-27 -32 0
-27 -33 0
-27 -34 0
-27 -35 0
-27 -36 0
-27 -37 0
-27 -38 0
-27 -39 0
-27 -212 0
-28 -29 0
-28 -30 0
-28 -31 0
-28 -32 0
-28 -33 0
-28 -34 0
-28 -35 0
-28 -36 0
-28 -37 0
-28 -38 0
-28 -39 0
-28 -212 0
-29 -30 0
-29 -31 0
-29 -32 0
-29 -33 0
-29 -34 0
-29 -35 0
-29 -36 0
-29 -37 0
-29 -38 0
-29 -39 0
-29 -212 0
-30 -31 0
-30 -32 0
-30 -33 0
-30 -34 0
-30 -35 0
-30 -36 0
-30 -37 0
-30 -38 0
-30 -39 0
-30 -212 0
-31 -32 0
-31 -33 0
-31 -34 0
-31 -35 0
-31 -36 0
-31 -37 0
-31 -38 0
-31 -39 0
-31 -212 0
-32 -33 0
-32 -34 0
-32 -35 0
-32 -36 0
-32 -37 0
-32 -38 0
-32 -39 0
-32 -212 0
-33 -34 0
-33 -35 0
-33 -36 0
-33 -37 0
-33 -38 0
-33 -39 0
-33 -212 0
-34 -35 0
-34 -36 0
-34 -37 0
-34 -38 0
-34 -39 0
-34 -212 0
-35 -36 0
-35 -37 0
-35 -38 0
-35 -39 0
-35 -212 0
-36 -37 0
-36 -38 0
-36 -39 0
-36 -212 0
-37 -38 0
-37 -39 0
-37 -212 0
-38 -39 0
-38 -212 0
-39 -212 0
2 21 40 41 42 43 44 45 46 47 48 49 50 51 52 53 54 55 56 57 213 0
-2 -21 0
-2 -40 0
-2 -41 0
-2 -42 0
-2 -43 0
-2 -44 0
-2 -45 0
-2 -46 0
-2 -47 0
-2 -48 0
-2 -49 0
-2 -50 0
-2 -51 0
-2 -52 0
-2 -53 0
-2 -54 0
-2 -55 0
-2 -56 0
-2 -57 0
-2 -213 0
-21 -40 0
-21 -41 0
-21 -42 0
-21 -43 0
-21 -44 0
-21 -45 0
-21 -46 0
-21 -47 0
-21 -48 0
-21 -49 0
-21 -50 0
-21 -51 0
-21 -52 0
-21 -53 0
-21 -54 0
-21 -55 0
-21 -56 0
-21 -57 0
-21 -213 0
-40 -41 0
-40 -42 0
-40 -43 0
-40 -44 0
-40 -45 0
-40 -46 0
-40 -47 0
-40 -48 0
-40 -49 0
-40 -50 0
-40 -51 0
-40 -52 0
-40 -53 0
-40 -54 0
-40 -55 0
-40 -56 0
-40 -57 0
-40 -213 0
-41 -42 0
-41 -43 0
-41 -44 0
-41 -45 0
-41 -46 0
-41 -47 0
-41 -48 0
-41 -49 0
-41 -50 0
-41 -51 0
-41 -52 0
-41 -53 0
-41 -54 0
-41 -55 0
-41 -56 0
-41 -57 0
-41 -213 0
-42 -43 0
-42 -44 0
-42 -45 0
-42 -46 0
-42 -47 0
-42 -48 0
-42 -49 0
-42 -50 0
-42 -51 0
-42 -52 0
-42 -53 0
-42 -54 0
-42 -55 0
-42 -56 0
-42 -57 0
-42 -213 0
-43 -44 0
-43 -45 0
-43 -46 0
-43 -47 0
-43 -48 0
-43 -49 0
-43 -50 0
-43 -51 0
-43 -52 0
-43 -53 0
-43 -54 0
-43 -55 0
-43 -56 0
-43 -57 0
-43 -213 0
-44 -45 0
-44 -46 0
-44 -47 0
-44 -48 0
-44 -49 0
-44 -50 0
-44 -51 0
-44 -52 0
-44 -53 0
-44 -54 0
-44 -55 0
-44 -56 0
-44 -57 0
-44 -213 0
-45 -46 0
-45 -47 0
-45 -48 0
-45 -49 0
-45 -50 0
-45 -51 0
-45 -52 0
-45 -53 0
-45 -54 0
-45 -55 0
-45 -56 0
-45 -57 0
-45 -213 0
-46 -47 0
-46 -48 0
-46 -49 0
-46 -50 0
-46 -51 0
-46 -52 0
-46 -53 0
-46 -54 0
-46 -55 0
-46 -56 0
-46 -57 0
-46 -213 0
-47 -48 0
-47 -49 0
-47 -50 0
-47 -51 0
-47 -52 0
-47 -53 0
-47 -54 0
-47 -55 0
-47 -56 0
-47 -57 0
-47 -213 0
-48 -49 0
-48 -50 0
-48 -51 0
-48 -52 0
-48 -53 0
-48 -54 0
-48 -55 0
-48 -56 0
-48 -57 0
-48 -213 0
-49 -50 0
-49 -51 0
-49 -52 0
-49 -53 0
-49 -54 0
-49 -55 0
-49 -56 0
-49 -57 0
-49 -213 0
-50 -51 0
-50 -52 0
-50 -53 0
-50 -54 0
-50 -55 0
-50 -56 0
-50 -57 0
-50 -213 0
-51 -52 0
-51 -53 0
-51 -54 0
-51 -55 0
-51 -56 0
-51 -57 0
-51 -213 0
-52 -53 0
-52 -54 0
-52 -55 0
-52 -56 0
-52 -57 0
-52 -213 0
-53 -54 0
-53 -55 0
-53 -56 0
-53 -57 0
-53 -213 0
-54 -55 0
-54 -56 0
-54 -57 0
-54 -213 0
-55 -56 0
-55 -57 0
-55 -213 0
-56 -57 0
-56 -213 0
-57 -213 0
3 22 40 58 59 60 61 62 63 64 65 66 67 68 69 70 71 72 73 74 214 0
-3 -22 0
-3 -40 0
-3 -58 0
-3 -59 0
-3 -60 0
-3 -61 0
-3 -62 0
-3 -63 0
-3 -64 0
-3 -65 0
-3 -66 0
-3 -67 0
-3 -68 0
-3 -69 0
-3 -70 0
-3 -71 0
-3 -72 0
-3 -73 0
-3 -74 0
-3 -214 0
-22 -40 0
-22 -58 0
-22 -59 0
-22 -60 0
-22 -61 0
-22 -62 0
-22 -63 0
-22 -64 0
-22 -65 0
-22 -66 0
-22 -67 0
-22 -68 0
-22 -69 0
-22 -70 0
-22 -71 0
-22 -72 0
-22 -73 0
-22 -74 0
-22 -214 0
-40 -58 0
-40 -59 0
-40 -60 0
-40 -61 0
-40 -62 0
-40 -63 0
-40 -64 0
-40 -65 0
-40 -66 0
-40 -67 0
-40 -68 0
-40 -69 0
-40 -70 0
-40 -71 0
-40 -72 0
-40 -73 0
-40 -74 0
-40 -214 0
-58 -59 0
-58 -60 0
-58 -61 0
-58 -62 0
-58 -63 0
-58 -64 0
-58 -65 0
-58 -66 0
-58 -67 0
-58 -68 0
-58 -69 0
-58 -70 0
-58 -71 0
-58 -72 0
-58 -73 0
-58 -74 0
-58 -214 0
-59 -60 0
-59 -61 0
-59 -62 0
-59 -63 0
-59 -64 0
-59 -65 0
-59 -66 0
-59 -67 0
-59 -68 0
-59 -69 0
-59 -70 0
-59 -71 0
-59 -72 0
-59 -73 0
-59 -74 0
-59 -214 0
-60 -61 0
-60 -62 0
-60 -63 0
-60 -64 0
-60 -65 0
-60 -66 0
-60 -67 0
-60 -68 0
-60 -69 0
-60 -70 0
-60 -71 0
-60 -72 0
-60 -73 0
-60 -74 0
-60 -214 0
-61 -62 0
-61 -63 0
-61 -64 0
-61 -65 0
-61 -66 0
-61 -67 0
-61 -68 0
-61 -69 0
-61 -70 0
-61 -71 0
-61 -72 0
-61 -73 0
-61 -74 0
-61 -214 0
-62 -63 0
-62 -64 0
-62 -65 0
-62 -66 0
-62 -67 0
-62 -68 0
-62 -69 0
-62 -70 0
-62 -71 0
-62 -72 0
-62 -73 0
-62 -74 0
-62 -214 0
-63 -64 0
-63 -65 0
-63 -66 0
-63 -67 0
-63 -68 0
-63 -69 0
-63 -70 0
-63 -71 0
-63 -72 0
-63 -73 0
-63 -74 0
-63 -214 0
-64 -65 0
-64 -66 0
-64 -67 0
-64 -68 0
-64 -69 0
-64 -70 0
-64 -71 0
-64 -72 0
-64 -73 0
-64 -74 0
-64 -214 0
-65 -66 0
-65 -67 0
-65 -68 0
-65 -69 0
-65 -70 0
-65 -71 0
-65 -72 0
-65 -73 0
-65 -74 0
-65 -214 0
-66 -67 0
-66 -68 0
-66 -69 0
-66 -70 0
-66 -71 0
-66 -72 0
-66 -73 0
-66 -74 0
-66 -214 0
-67 -68 0
-67 -69 0
-67 -70 0
-67 -71 0
-67 -72 0
-67 -73 0
-67 -74 0
-67 -214 0
-68 -69 0
-68 -70 0
-68 -71 0
-68 -72 0
-68 -73 0
-68 -74 0
-68 -214 0
-69 -70 0
-69 -71 0
-69 -72 0
-69 -73 0
-69 -74 0
-69 -214 0
-70 -71 0
-70 -72 0
-70 -73 0
-70 -74 0
-70 -214 0
-71 -72 0
-71 -73 0
-71 -74 0
-71 -214 0
-72 -73 0
-72 -74 0
-72 -214 0
-73 -74 0
-73 -214 0
-74 -214 0
4 23 41 58 75 76 77 78 79 80 81 82 83 84 85 86 87 88 89 90 215 0
-4 -23 0
-4 -41 0
-4 -58 0
-4 -75 0
-4 -76 0
-4 -77 0
-4 -78 0
-4 -79 0
-4 -80 0
-4 -81 0
-4 -82 0
-4 -83 0
-4 -84 0
-4 -85 0
-4 -86 0
-4 -87 0
-4 -88 0
-4 -89 0
-4 -90 0
-4 -215 0
-23 -41 0
-23 -58 0
-23 -75 0
-23 -76 0
-23 -77 0
-23 -78 0
-23 -79 0
-23 -80 0
-23 -81 0
-23 -82 0
-23 -83 0
-23 -84 0
-23 -85 0
-23 -86 0
-23 -87 0
-23 -88 0
-23 -89 0
-23 -90 0
-23 -215 0
-41 -58 0
-41 -75 0
-41 -76 0
-41 -77 0
-41 -78 0
-41 -79 0
-41 -80 0
-41 -81 0
-41 -82 0
-41 -83 0
-41 -84 0
-41 -85 0
-41 -86 0
-41 -87 0
-41 -88 0
-41 -89 0
-41 -90 0
-41 -215 0
-58 -75 0
-58 -76 0
-58 -77 0
-58 -78 0
-58 -79 0
-58 -80 0
-58 -81 0
-58 -82 0
-58 -83 0
-58 -84 0
-58 -85 0
-58 -86 0
-58 -87 0
-58 -88 0
-58 -89 0
-58 -90 0
-58 -215 0
-75 -76 0
-75 -77 0
-75 -78 0
-75 -79 0
-75 -80 0
-75 -81 0
-75 -82 0
-75 -83 0
-75 -84 0
-75 -85 0
-75 -86 0
-75 -87 0
-75 -88 0
-75 -89 0
-75 -90 0
-75 -215 0
-76 -77 0
-76 -78 0
-76 -79 0
-76 -80 0
-76 -81 0
-76 -82 0
-76 -83 0
-76 -84 0
-76 -85 0
-76 -86 0
-76 -87 0
-76 -88 0
-76 -89 0
-76 -90 0
-76 -215 0
-77 -78 0
-77 -79 0
-77 -80 0
-77 -81 0
-77 -82 0
-77 -83 0
-77 -84 0
-77 -85 0
-77 -86 0
-77 -87 0
-77 -88 0
-77 -89 0
-77 -90 0
-77 -215 0
-78 -79 0
-78 -80 0
-78 -81 0
-78 -82 0
-78 -83 0
-78 -84 0
-78 -85 0
-78 -86 0
-78 -87 0
-78 -88 0
-78 -89 0
-78 -90 0
-78 -215 0
-79 -80 0
-79 -81 0
-79 -82 0
-79 -83 0
-79 -84 0
-79 -85 0
-79 -86 0
-79 -87 0
-79 -88 0
-79 -89 0
-79 -90 0
-79 -215 0
-80 -81 0
-80 -82 0
-80 -83 0
-80 -84 0
-80 -85 0
-80 -86 0
-80 -87 0
-80 -88 0
-80 -89 0
-80 -90 0
-80 -215 0
-81 -82 0
-81 -83 0
-81 -84 0
-81 -85 0
-81 -86 0
-81 -87 0
-81 -88 0
-81 -89 0
-81 -90 0
-81 -215 0
-82 -83 0
-82 -84 0
-82 -85 0
-82 -86 0
-82 -87 0
-82 -88 0
-82 -89 0
-82 -90 0
-82 -215 0
-83 -84 0
-83 -85 0
-83 -86 0
-83 -87 0
-83 -88 0
-83 -89 0
-83 -90 0
-83 -215 0
-84 -85 0
-84 -86 0
-84 -87 0
-84 -88 0
-84 -89 0
-84 -90 0
-84 -215 0
-85 -86 0
-85 -87 0
-85 -88 0
-85 -89 0
-85 -90 0
-85 -215 0
-86 -87 0
-86 -88 0
-86 -89 0
-86 -90 0
-86 -215 0
-87 -88 0
-87 -89 0
-87 -90 0
-87 -215 0
-88 -89 0
-88 -90 0
-88 -215 0
-89 -90 0
-89 -215 0
-90 -215 0
5 24 42 59 75 91 92 93 94 95 96 97 98 99 100 101 102 103 104 105 216 0
-5 -24 0
-5 -42 0
-5 -59 0
-5 -75 0
-5 -91 0
-5 -92 0
-5 -93 0
-5 -94 0
-5 -95 0
-5 -96 0
-5 -97 0
-5 -98 0
-5 -99 0
-5 -100 0
-5 -101 0
-5 -102 0
-5 -103 0
-5 -104 0
-5 -105 0
-5 -216 0
-24 -42 0
-24 -59 0
-24 -75 0
-24 -91 0
-24 -92 0
-24 -93 0
-24 -94 0
-24 -95 0
-24 -96 0
-24 -97 0
-24 -98 0
-24 -99 0
-24 -100 0
-24 -101 0
-24 -102 0
-24 -103 0
-24 -104 0
-24 -105 0
-24 -216 0
-42 -59 0
-42 -75 0
-42 -91 0
-42 -92 0
-42 -93 0
-42 -94 0
-42 -95 0
-42 -96 0
-42 -97 0
-42 -98 0
-42 -99 0
-42 -100 0
-42 -101 0
-42 -102 0
-42 -103 0
-42 -104 0
-42 -105 0
-42 -216 0
-59 -75 0
-59 -91 0
-59 -92 0
-59 -93 0
-59 -94 0
-59 -95 0
-59 -96 0
-59 -97 0
-59 -98 0
-59 -99 0
-59 -100 0
-59 -101 0
-59 -102 0
-59 -103 0
-59 -104 0
-59 -105 0
-59 -216 0
-75 -91 0
-75 -92 0
-75 -93 0
-75 -94 0
-75 -95 0
-75 -96 0
-75 -97 0
-75 -98 0
-75 -99 0
-75 -100 0
-75 -101 0
-75 -102 0
-75 -103 0
-75 -104 0
-75 -105 0
-75 -216 0
-91 -92 0
-91 -93 0
-91 -94 0
-91 -95 0
-91 -96 0
-91 -97 0
-91 -98 0
-91 -99 0
-91 -100 0
-91 -101 0
-91 -102 0
-91 -103 0
-91 -104 0
-91 -105 0
-91 -216 0
-92 -93 0
-92 -94 0
-92 -95 0
-92 -96 0
-92 -97 0
-92 -98 0
-92 -99 0
-92 -100 0
-92 -101 0
-92 -102 0
-92 -103 0
-92 -104 0
-92 -105 0
-92 -216 0
-93 -94 0
-93 -95 0
-93 -96 0
-93 -97 0
-93 -98 0
-93 -99 0
-93 -100 0
-93 -101 0
-93 -102 0
-93 -103 0
-93 -104 0
-93 -105 0
-93 -216 0
-94 -95 0
-94 -96 0
-94 -97 0
-94 -98 0
-94 -99 0
-94 -100 0
-94 -101 0
-94 -102 0
-94 -103 0
-94 -104 0
-94 -105 0
-94 -216 0
-95 -96 0
-95 -97 0
-95 -98 0
-95 -99 0
-95 -100 0
-95 -101 0
-95 -102 0
-95 -103 0
-95 -104 0
-95 -105 0
-95 -216 0
-96 -97 0
-96 -98 0
-96 -99 0
-96 -100 0
-96 -101 0
-96 -102 0
-96 -103 0
-96 -104 0
-96 -105 0
-96 -216 0
-97 -98 0
-97 -99 0
-97 -100 0
-97 -101 0
-97 -102 0
-97 -103 0
-97 -104 0
-97 -105 0
-97 -216 0
-98 -99 0
-98 -100 0
-98 -101 0
-98 -102 0
-98 -103 0
-98 -104 0
-98 -105 0
-98 -216 0
-99 -100 0
-99 -101 0
-99 -102 0
-99 -103 0
-99 -104 0
-99 -105 0
-99 -216 0
-100 -101 0
-100 -102 0
-100 -103 0
-100 -104 0
-100 -105 0
-100 -216 0
-101 -102 0
-101 -103 0
-101 -104 0
-101 -105 0
-101 -216 0
-102 -103 0
-102 -104 0
-102 -105 0
-102 -216 0
-103 -104 0
-103 -105 0
-103 -216 0
-104 -105 0
-104 -216 0
-105 -216 0
6 25 43 60 76 91 106 107 108 109 110 111 112 113 114 115 116 117 118 119 217 0
-6 -25 0
-6 -43 0
-6 -60 0
-6 -76 0
-6 -91 0
-6 -106 0
-6 -107 0
-6 -108 0
-6 -109 0
-6 -110 0
-6 -111 0
-6 -112 0
-6 -113 0
-6 -114 0
-6 -115 0
-6 -116 0
-6 -117 0
-6 -118 0
-6 -119 0
-6 -217 0
-25 -43 0
-25 -60 0
-25 -76 0
-25 -91 0
-25 -106 0
-25 -107 0
-25 -108 0
-25 -109 0
-25 -110 0
-25 -111 0
-25 -112 0
-25 -113 0
-25 -114 0
-25 -115 0
-25 -116 0
-25 -117 0
-25 -118 0
-25 -119 0
-25 -217 0
-43 -60 0
-43 -76 0
-43 -91 0
-43 -106 0
-43 -107 0
-43 -108 0
-43 -109 0
-43 -110 0
-43 -111 0
-43 -112 0
-43 -113 0
-43 -114 0
-43 -115 0
-43 -116 0
-43 -117 0
-43 -118 0
-43 -119 0
-43 -217 0
-60 -76 0
-60 -91 0
-60 -106 0
-60 -107 0
-60 -108 0
-60 -109 0
-60 -110 0
-60 -111 0
-60 -112 0
-60 -113 0
-60 -114 0
-60 -115 0
-60 -116 0
-60 -117 0
-60 -118 0
-60 -119 0
-60 -217 0
-76 -91 0
-76 -106 0
-76 -107 0
-76 -108 0
-76 -109 0
-76 -110 0
-76 -111 0
-76 -112 0
-76 -113 0
-76 -114 0
-76 -115 0
-76 -116 0
-76 -117 0
-76 -118 0
-76 -119 0
-76 -217 0
-91 -106 0
-91 -107 0
-91 -108 0
-91 -109 0
-91 -110 0
-91 -111 0
-91 -112 0
-91 -113 0
-91 -114 0
-91 -115 0
-91 -116 0
-91 -117 0
-91 -118 0
-91 -119 0
-91 -217 0
-106 -107 0
-106 -108 0
-106 -109 0
-106 -110 0
-106 -111 0
-106 -112 0
-106 -113 0
-106 -114 0
-106 -115 0
-106 -116 0
-106 -117 0
-106 -118 0
-106 -119 0
-106 -217 0
-107 -108 0
-107 -109 0
-107 -110 0
-107 -111 0
-107 -112 0
-107 -113 0
-107 -114 0
-107 -115 0
-107 -116 0
-107 -117 0
-107 -118 0
-107 -119 0
-107 -217 0
-108 -109 0
-108 -110 0
-108 -111 0
-108 -112 0
-108 -113 0
-108 -114 0
-108 -115 0
-108 -116 0
-108 -117 0
-108 -118 0
-108 -119 0
-108 -217 0
-109 -110 0
-109 -111 0
-109 -112 0
-109 -113 0
-109 -114 0
-109 -115 0
-109 -116 0
-109 -117 0
-109 -118 0
-109 -119 0
-109 -217 0
-110 -111 0
-110 -112 0
-110 -113 0
-110 -114 0
-110 -115 0
-110 -116 0
-110 -117 0
-110 -118 0
-110 -119 0
-110 -217 0
-111 -112 0
-111 -113 0
-111 -114 0
-111 -115 0
-111 -116 0
-111 -117 0
-111 -118 0
-111 -119 0
-111 -217 0
-112 -113 0
-112 -114 0
-112 -115 0
-112 -116 0
-112 -117 0
-112 -118 0
-112 -119 0
-112 -217 0
-113 -114 0
-113 -115 0
-113 -116 0
-113 -117 0
-113 -118 0
-113 -119 0
-113 -217 0
-114 -115 0
-114 -116 0
-114 -117 0
-114 -118 0
-114 -119 0
-114 -217 0
-115 -116 0
-115 -117 0
-115 -118 0
-115 -119 0
-115 -217 0
-116 -117 0
-116 -118 0
-116 -119 0
-116 -217 0
-117 -118 0
-117 -119 0
-117 -217 0
-118 -119 0
-118 -217 0
-119 -217 0
7 26 44 61 77 92 106 120 121 122 123 124 125 126 127 128 129 130 131 132 218 0
-7 -26 0
-7 -44 0
-7 -61 0
-7 -77 0
-7 -92 0
-7 -106 0
-7 -120 0
-7 -121 0
-7 -122 0
-7 -123 0
-7 -124 0
-7 -125 0
-7 -126 0
-7 -127 0
-7 -128 0
-7 -129 0
-7 -130 0
-7 -131 0
-7 -132 0
-7 -218 0
-26 -44 0
-26 -61 0
-26 -77 0
-26 -92 0
-26 -106 0
-26 -120 0
-26 -121 0
-26 -122 0
-26 -123 0
-26 -124 0
-26 -125 0
-26 -126 0
-26 -127 0
-26 -128 0
-26 -129 0
-26 -130 0
-26 -131 0
-26 -132 0
-26 -218 0
-44 -61 0
-44 -77 0
-44 -92 0
-44 -106 0
-44 -120 0
-44 -121 0
-44 -122 0
-44 -123 0
-44 -124 0
-44 -125 0
-44 -126 0
-44 -127 0
-44 -128 0
-44 -129 0
-44 -130 0
-44 -131 0
-44 -132 0
-44 -218 0
-61 -77 0
-61 -92 0
-61 -106 0
-61 -120 0
-61 -121 0
-61 -122 0
-61 -123 0
-61 -124 0
-61 -125 0
-61 -126 0
-61 -127 0
-61 -128 0
-61 -129 0
-61 -130 0
-61 -131 0
-61 -132 0
-61 -218 0
-77 -92 0
-77 -106 0
-77 -120 0
-77 -121 0
-77 -122 0
-77 -123 0
-77 -124 0
-77 -125 0
-77 -126 0
-77 -127 0
-77 -128 0
-77 -129 0
-77 -130 0
-77 -131 0
-77 -132 0
-77 -218 0
-92 -106 0
-92 -120 0
-92 -121 0
-92 -122 0
-92 -123 0
-92 -124 0
-92 -125 0
-92 -126 0
-92 -127 0
-92 -128 0
-92 -129 0
-92 -130 0
-92 -131 0
-92 -132 0
-92 -218 0
-106 -120 0
-106 -121 0
-106 -122 0
-106 -123 0
-106 -124 0
-106 -125 0
-106 -126 0
-106 -127 0
-106 -128 0
-106 -129 0
-106 -130 0
-106 -131 0
-106 -132 0
-106 -218 0
-120 -121 0
-120 -122 0
-120 -123 0
-120 -124 0
-120 -125 0
-120 -126 0
-120 -127 0
-120 -128 0
-120 -129 0
-120 -130 0
-120 -131 0
-120 -132 0
-120 -218 0
-121 -122 0
-121 -123 0
-121 -124 0
-121 -125 0
-121 -126 0
-121 -127 0
-121 -128 0
-121 -129 0
-121 -130 0
-121 -131 0
-121 -132 0
-121 -218 0
-122 -123 0
-122 -124 0
-122 -125 0
-122 -126 0
-122 -127 0
-122 -128 0
-122 -129 0
-122 -130 0
-122 -131 0
-122 -132 0
-122 -218 0
-123 -124 0
-123 -125 0
-123 -126 0
-123 -127 0
-123 -128 0
-123 -129 0
-123 -130 0
-123 -131 0
-123 -132 0
-123 -218 0
-124 -125 0
-124 -126 0
-124 -127 0
-124 -128 0
-124 -129 0
-124 -130 0
-124 -131 0
-124 -132 0
-124 -218 0
-125 -126 0
-125 -127 0
-125 -128 0
-125 -129 0
-125 -130 0
-125 -131 0
-125 -132 0
-125 -218 0
-126 -127 0
-126 -128 0
-126 -129 0
-126 -130 0
-126 -131 0
-126 -132 0
-126 -218 0
-127 -128 0
-127 -129 0
-127 -130 0
-127 -131 0
-127 -132 0
-127 -218 0
-128 -129 0
-128 -130 0
-128 -131 0
-128 -132 0
-128 -218 0
-129 -130 0
-129 -131 0
-129 -132 0
-129 -218 0
-130 -131 0
-130 -132 0
-130 -218 0
-131 -132 0
-131 -218 0
-132 -218 0
8 27 45 62 78 93 107 120 133 134 135 136 137 138 139 140 141 142 143 144 219 0
-8 -27 0
-8 -45 0
-8 -62 0
-8 -78 0
-8 -93 0
-8 -107 0
-8 -120 0
-8 -133 0
-8 -134 0
-8 -135 0
-8 -136 0
-8 -137 0
-8 -138 0
-8 -139 0
-8 -140 0
-8 -141 0
-8 -142 0
-8 -143 0
-8 -144 0
-8 -219 0
-27 -45 0
-27 -62 0
-27 -78 0
-27 -93 0
-27 -107 0
-27 -120 0
-27 -133 0
-27 -134 0
-27 -135 0
-27 -136 0
-27 -137 0
-27 -138 0
-27 -139 0
-27 -140 0
-27 -141 0
-27 -142 0
-27 -143 0
-27 -144 0
-27 -219 0
-45 -62 0
-45 -78 0
-45 -93 0
-45 -107 0
-45 -120 0
-45 -133 0
-45 -134 0
-45 -135 0
-45 -136 0
-45 -137 0
-45 -138 0
-45 -139 0
-45 -140 0
-45 -141 0
-45 -142 0
-45 -143 0
-45 -144 0
-45 -219 0
-62 -78 0
-62 -93 0
-62 -107 0
-62 -120 0
-62 -133 0
-62 -134 0
-62 -135 0
-62 -136 0
-62 -137 0
-62 -138 0
-62 -139 0
-62 -140 0
-62 -141 0
-62 -142 0
-62 -143 0
-62 -144 0
-62 -219 0
-78 -93 0
-78 -107 0
-78 -120 0
-78 -133 0
-78 -134 0
-78 -135 0
-78 -136 0
-78 -137 0
-78 -138 0
-78 -139 0
-78 -140 0
-78 -141 0
-78 -142 0
-78 -143 0
-78 -144 0
-78 -219 0
-93 -107 0
-93 -120 0
-93 -133 0
-93 -134 0
-93 -135 0
-93 -136 0
-93 -137 0
-93 -138 0
-93 -139 0
-93 -140 0
-93 -141 0
-93 -142 0
-93 -143 0
-93 -144 0
-93 -219 0
-107 -120 0
-107 -133 0
-107 -134 0
-107 -135 0
-107 -136 0
-107 -137 0
-107 -138 0
-107 -139 0
-107 -140 0
-107 -141 0
-107 -142 0
-107 -143 0
-107 -144 0
-107 -219 0
-120 -133 0
-120 -134 0
-120 -135 0
-120 -136 0
-120 -137 0
-120 -138 0
-120 -139 0
-120 -140 0
-120 -141 0
-120 -142 0
-120 -143 0
-120 -144 0
-120 -219 0
-133 -134 0
-133 -135 0
-133 -136 0
-133 -137 0
-133 -138 0
-133 -139 0
-133 -140 0
-133 -141 0
-133 -142 0
-133 -143 0
-133 -144 0
-133 -219 0
-134 -135 0
-134 -136 0
-134 -137 0
-134 -138 0
-134 -139 0
-134 -140 0
-134 -141 0
-134 -142 0
-134 -143 0
-134 -144 0
-134 -219 0
-135 -136 0
-135 -137 0
-135 -138 0
-135 -139 0
-135 -140 0
-135 -141 0
-135 -142 0
-135 -143 0
-135 -144 0
-135 -219 0
-136 -137 0
-136 -138 0
-136 -139 0
-136 -140 0
-136 -141 0
-136 -142 0
-136 -143 0
-136 -144 0
-136 -219 0
-137 -138 0
-137 -139 0
-137 -140 0
-137 -141 0
-137 -142 0
-137 -143 0
-137 -144 0
-137 -219 0
-138 -139 0
-138 -140 0
-138 -141 0
-138 -142 0
-138 -143 0
-138 -144 0
-138 -219 0
-139 -140 0
-139 -141 0
-139 -142 0
-139 -143 0
-139 -144 0
-139 -219 0
-140 -141 0
-140 -142 0
-140 -143 0
-140 -144 0
-140 -219 0
-141 -142 0
-141 -143 0
-141 -144 0
-141 -219 0
-142 -143 0
-142 -144 0
-142 -219 0
-143 -144 0
-143 -219 0
-144 -219 0
9 28 46 63 79 94 108 121 133 145 146 147 148 149 150 151 152 153 154 155 220 0
-9 -28 0
-9 -46 0
-9 -63 0
-9 -79 0
-9 -94 0
-9 -108 0
-9 -121 0
-9 -133 0
-9 -145 0
-9 -146 0
-9 -147 0
-9 -148 0
-9 -149 0
-9 -150 0
-9 -151 0
-9 -152 0
-9 -153 0
-9 -154 0
-9 -155 0
-9 -220 0
-28 -46 0
-28 -63 0
-28 -79 0
-28 -94 0
-28 -108 0
-28 -121 0
-28 -133 0
-28 -145 0
-28 -146 0
-28 -147 0
-28 -148 0
-28 -149 0
-28 -150 0
-28 -151 0
-28 -152 0
-28 -153 0
-28 -154 0
-28 -155 0
-28 -220 0
-46 -63 0
-46 -79 0
-46 -94 0
-46 -108 0
-46 -121 0
-46 -133 0
-46 -145 0
-46 -146 0
-46 -147 0
-46 -148 0
-46 -149 0
-46 -150 0
-46 -151 0
-46 -152 0
-46 -153 0
-46 -154 0
-46 -155 0
-46 -220 0
-63 -79 0
-63 -94 0
-63 -108 0
-63 -121 0
-63 -133 0
-63 -145 0
-63 -146 0
-63 -147 0
-63 -148 0
-63 -149 0
-63 -150 0
-63 -151 0
-63 -152 0
-63 -153 0
-63 -154 0
-63 -155 0
-63 -220 0
-79 -94 0
-79 -108 0
-79 -121 0
-79 -133 0
-79 -145 0
-79 -146 0
-79 -147 0
-79 -148 0
-79 -149 0
-79 -150 0
-79 -151 0
-79 -152 0
-79 -153 0
-79 -154 0
-79 -155 0
-79 -220 0
-94 -108 0
-94 -121 0
-94 -133 0
-94 -145 0
-94 -146 0
-94 -147 0
-94 -148 0
-94 -149 0
-94 -150 0
-94 -151 0
-94 -152 0
-94 -153 0
-94 -154 0
-94 -155 0
-94 -220 0
-108 -121 0
-108 -133 0
-108 -145 0
-108 -146 0
-108 -147 0
-108 -148 0
-108 -149 0
-108 -150 0
-108 -151 0
-108 -152 0
-108 -153 0
-108 -154 0
-108 -155 0
-108 -220 0
-121 -133 0
-121 -145 0
-121 -146 0
-121 -147 0
-121 -148 0
-121 -149 0
-121 -150 0
-121 -151 0
-121 -152 0
-121 -153 0
-121 -154 0
-121 -155 0
-121 -220 0
-133 -145 0
-133 -146 0
-133 -147 0
-133 -148 0
-133 -149 0
-133 -150 0
-133 -151 0
-133 -152 0
-133 -153 0
-133 -154 0
-133 -155 0
-133 -220 0
-145 -146 0
-145 -147 0
-145 -148 0
-145 -149 0
-145 -150 0
-145 -151 0
-145 -152 0
-145 -153 0
-145 -154 0
-145 -155 0
-145 -220 0
-146 -147 0
-146 -148 0
-146 -149 0
-146 -150 0
-146 -151 0
-146 -152 0
-146 -153 0
-146 -154 0
-146 -155 0
-146 -220 0
-147 -148 0
-147 -149 0
-147 -150 0
-147 -151 0
-147 -152 0
-147 -153 0
-147 -154 0
-147 -155 0
-147 -220 0
-148 -149 0
-148 -150 0
-148 -151 0
-148 -152 0
-148 -153 0
-148 -154 0
-148 -155 0
-148 -220 0
-149 -150 0
-149 -151 0
-149 -152 0
-149 -153 0
-149 -154 0
-149 -155 0
-149 -220 0
-150 -151 0
-150 -152 0
-150 -153 0
-150 -154 0
-150 -155 0
-150 -220 0
-151 -152 0
-151 -153 0
-151 -154 0
-151 -155 0
-151 -220 0
-152 -153 0
-152 -154 0
-152 -155 0
-152 -220 0
-153 -154 0
-153 -155 0
-153 -220 0
-154 -155 0
-154 -220 0
-155 -220 0
10 29 47 64 80 95 109 122 134 145 156 157 158 159 160 161 162 163 164 165 221 0
-10 -29 0
-10 -47 0
-10 -64 0
-10 -80 0
-10 -95 0
-10 -109 0
-10 -122 0
-10 -134 0
-10 -145 0
-10 -156 0
-10 -157 0
-10 -158 0
-10 -159 0
-10 -160 0
-10 -161 0
-10 -162 0
-10 -163 0
-10 -164 0
-10 -165 0
-10 -221 0
-29 -47 0
-29 -64 0
-29 -80 0
-29 -95 0
-29 -109 0
-29 -122 0
-29 -134 0
-29 -145 0
-29 -156 0
-29 -157 0
-29 -158 0
-29 -159 0
-29 -160 0
-29 -161 0
-29 -162 0
-29 -163 0
-29 -164 0
-29 -165 0
-29 -221 0
-47 -64 0
-47 -80 0
-47 -95 0
-47 -109 0
-47 -122 0
-47 -134 0
-47 -145 0
-47 -156 0
-47 -157 0
-47 -158 0
-47 -159 0
-47 -160 0
-47 -161 0
-47 -162 0
-47 -163 0
-47 -164 0
-47 -165 0
-47 -221 0
-64 -80 0
-64 -95 0
-64 -109 0
-64 -122 0
-64 -134 0
-64 -145 0
-64 -156 0
-64 -157 0
-64 -158 0
-64 -159 0
-64 -160 0
-64 -161 0
-64 -162 0
-64 -163 0
-64 -164 0
-64 -165 0
-64 -221 0
-80 -95 0
-80 -109 0
-80 -122 0
-80 -134 0
-80 -145 0
-80 -156 0
-80 -157 0
-80 -158 0
-80 -159 0
-80 -160 0
-80 -161 0
-80 -162 0
-80 -163 0
-80 -164 0
-80 -165 0
-80 -221 0
-95 -109 0
-95 -122 0
-95 -134 0
-95 -145 0
-95 -156 0
-95 -157 0
-95 -158 0
-95 -159 0
-95 -160 0
-95 -161 0
-95 -162 0
-95 -163 0
-95 -164 0
-95 -165 0
-95 -221 0
-109 -122 0
-109 -134 0
-109 -145 0
-109 -156 0
-109 -157 0
-109 -158 0
-109 -159 0
-109 -160 0
-109 -161 0
-109 -162 0
-109 -163 0
-109 -164 0
-109 -165 0
-109 -221 0
-122 -134 0
-122 -145 0
-122 -156 0
-122 -157 0
-122 -158 0
-122 -159 0
-122 -160 0
-122 -161 0
-122 -162 0
-122 -163 0
-122 -164 0
-122 -165 0
-122 -221 0
-134 -145 0
-134 -156 0
-134 -157 0
-134 -158 0
-134 -159 0
-134 -160 0
-134 -161 0
-134 -162 0
-134 -163 0
-134 -164 0
-134 -165 0
-134 -221 0
-145 -156 0
-145 -157 0
-145 -158 0
-145 -159 0
-145 -160 0
-145 -161 0
-145 -162 0
-145 -163 0
-145 -164 0
-145 -165 0
-145 -221 0
-156 -157 0
-156 -158 0
-156 -159 0
-156 -160 0
-156 -161 0
-156 -162 0
-156 -163 0
-156 -164 0
-156 -165 0
-156 -221 0
-157 -158 0
-157 -159 0
-157 -160 0
-157 -161 0
-157 -162 0
-157 -163 0
-157 -164 0
-157 -165 0
-157 -221 0
-158 -159 0
-158 -160 0
-158 -161 0
-158 -162 0
-158 -163 0
-158 -164 0
-158 -165 0
-158 -221 0
-159 -160 0
-159 -161 0
-159 -162 0
-159 -163 0
-159 -164 0
-159 -165 0
-159 -221 0
-160 -161 0
-160 -162 0
-160 -163 0
-160 -164 0
-160 -165 0
-160 -221 0
-161 -162 0
-161 -163 0
-161 -164 0
-161 -165 0
-161 -221 0
-162 -163 0
-162 -164 0
-162 -165 0
-162 -221 0
-163 -164 0
-163 -165 0
-163 -221 0
-164 -165 0
-164 -221 0
-165 -221 0
11 30 48 65 81 96 110 123 135 146 156 166 167 168 169 170 171 172 173 174 222 0
-11 -30 0
-11 -48 0
-11 -65 0
-11 -81 0
-11 -96 0
-11 -110 0
-11 -123 0
-11 -135 0
-11 -146 0
-11 -156 0
-11 -166 0
-11 -167 0
-11 -168 0
-11 -169 0
-11 -170 0
-11 -171 0
-11 -172 0
-11 -173 0
-11 -174 0
-11 -222 0
-30 -48 0
-30 -65 0
-30 -81 0
-30 -96 0
-30 -110 0
-30 -123 0
-30 -135 0
-30 -146 0
-30 -156 0
-30 -166 0
-30 -167 0
-30 -168 0
-30 -169 0
-30 -170 0
-30 -171 0
-30 -172 0
-30 -173 0
-30 -174 0
-30 -222 0
-48 -65 0
-48 -81 0
-48 -96 0
-48 -110 0
-48 -123 0
-48 -135 0
-48 -146 0
-48 -156 0
-48 -166 0
-48 -167 0
-48 -168 0
-48 -169 0
-48 -170 0
-48 -171 0
-48 -172 0
-48 -173 0
-48 -174 0
-48 -222 0
-65 -81 0
-65 -96 0
-65 -110 0
-65 -123 0
-65 -135 0
-65 -146 0
-65 -156 0
-65 -166 0
-65 -167 0
-65 -168 0
-65 -169 0
-65 -170 0
-65 -171 0
-65 -172 0
-65 -173 0
-65 -174 0
-65 -222 0
-81 -96 0
-81 -110 0
-81 -123 0
-81 -135 0
-81 -146 0
-81 -156 0
-81 -166 0
-81 -167 0
-81 -168 0
-81 -169 0
-81 -170 0
-81 -171 0
-81 -172 0
-81 -173 0
-81 -174 0
-81 -222 0
-96 -110 0
-96 -123 0
-96 -135 0
-96 -146 0
-96 -156 0
-96 -166 0
-96 -167 0
-96 -168 0
-96 -169 0
-96 -170 0
-96 -171 0
-96 -172 0
-96 -173 0
-96 -174 0
-96 -222 0
-110 -123 0
-110 -135 0
-110 -146 0
-110 -156 0
-110 -166 0
-110 -167 0
-110 -168 0
-110 -169 0
-110 -170 0
-110 -171 0
-110 -172 0
-110 -173 0
-110 -174 0
-110 -222 0
-123 -135 0
-123 -146 0
-123 -156 0
-123 -166 0
-123 -167 0
-123 -168 0
-123 -169 0
-123 -170 0
-123 -171 0
-123 -172 0
-123 -173 0
-123 -174 0
-123 -222 0
-135 -146 0
-135 -156 0
-135 -166 0
-135 -167 0
-135 -168 0
-135 -169 0
-135 -170 0
-135 -171 0
-135 -172 0
-135 -173 0
-135 -174 0
-135 -222 0
-146 -156 0
-146 -166 0
-146 -167 0
-146 -168 0
-146 -169 0
-146 -170 0
-146 -171 0
-146 -172 0
-146 -173 0
-146 -174 0
-146 -222 0
-156 -166 0
-156 -167 0
-156 -168 0
-156 -169 0
-156 -170 0
-156 -171 0
-156 -172 0
-156 -173 0
-156 -174 0
-156 -222 0
-166 -167 0
-166 -168 0
-166 -169 0
-166 -170 0
-166 -171 0
-166 -172 0
-166 -173 0
-166 -174 0
-166 -222 0
-167 -168 0
-167 -169 0
-167 -170 0
-167 -171 0
-167 -172 0
-167 -173 0
-167 -174 0
-167 -222 0
-168 -169 0
-168 -170 0
-168 -171 0
-168 -172 0
-168 -173 0
-168 -174 0
-168 -222 0
-169 -170 0
-169 -171 0
-169 -172 0
-169 -173 0
-169 -174 0
-169 -222 0
-170 -171 0
-170 -172 0
-170 -173 0
-170 -174 0
-170 -222 0
-171 -172 0
-171 -173 0
-171 -174 0
-171 -222 0
-172 -173 0
-172 -174 0
-172 -222 0
-173 -174 0
-173 -222 0
-174 -222 0
12 31 49 66 82 97 111 124 136 147 157 166 175 176 177 178 179 180 181 182 223 0
-12 -31 0
-12 -49 0
-12 -66 0
-12 -82 0
-12 -97 0
-12 -111 0
-12 -124 0
-12 -136 0
-12 -147 0
-12 -157 0
-12 -166 0
-12 -175 0
-12 -176 0
-12 -177 0
-12 -178 0
-12 -179 0
-12 -180 0
-12 -181 0
-12 -182 0
-12 -223 0
-31 -49 0
-31 -66 0
-31 -82 0
-31 -97 0
-31 -111 0
-31 -124 0
-31 -136 0
-31 -147 0
-31 -157 0
-31 -166 0
-31 -175 0
-31 -176 0
-31 -177 0
-31 -178 0
-31 -179 0
-31 -180 0
-31 -181 0
-31 -182 0
-31 -223 0
-49 -66 0
-49 -82 0
-49 -97 0
-49 -111 0
-49 -124 0
-49 -136 0
-49 -147 0
-49 -157 0
-49 -166 0
-49 -175 0
-49 -176 0
-49 -177 0
-49 -178 0
-49 -179 0
-49 -180 0
-49 -181 0
-49 -182 0
-49 -223 0
-66 -82 0
-66 -97 0
-66 -111 0
-66 -124 0
-66 -136 0
-66 -147 0
-66 -157 0
-66 -166 0
-66 -175 0
-66 -176 0
-66 -177 0
-66 -178 0
-66 -179 0
-66 -180 0
-66 -181 0
-66 -182 0
-66 -223 0
-82 -97 0
-82 -111 0
-82 -124 0
-82 -136 0
-82 -147 0
-82 -157 0
-82 -166 0
-82 -175 0
-82 -176 0
-82 -177 0
-82 -178 0
-82 -179 0
-82 -180 0
-82 -181 0
-82 -182 0
-82 -223 0
-97 -111 0
-97 -124 0
-97 -136 0
-97 -147 0
-97 -157 0
-97 -166 0
-97 -175 0
-97 -176 0
-97 -177 0
-97 -178 0
-97 -179 0
-97 -180 0
-97 -181 0
-97 -182 0
-97 -223 0
-111 -124 0
-111 -136 0
-111 -147 0
-111 -157 0
-111 -166 0
-111 -175 0
-111 -176 0
-111 -177 0
-111 -178 0
-111 -179 0
-111 -180 0
-111 -181 0
-111 -182 0
-111 -223 0
-124 -136 0
-124 -147 0
-124 -157 0
-124 -166 0
-124 -175 0
-124 -176 0
-124 -177 0
-124 -178 0
-124 -179 0
-124 -180 0
-124 -181 0
-124 -182 0
-124 -223 0
-136 -147 0
-136 -157 0
-136 -166 0
-136 -175 0
-136 -176 0
-136 -177 0
-136 -178 0
-136 -179 0
-136 -180 0
-136 -181 0
-136 -182 0
-136 -223 0
-147 -157 0
-147 -166 0
-147 -175 0
-147 -176 0
-147 -177 0
-147 -178 0
-147 -179 0
-147 -180 0
-147 -181 0
-147 -182 0
-147 -223 0
-157 -166 0
-157 -175 0
-157 -176 0
-157 -177 0
-157 -178 0
-157 -179 0
-157 -180 0
-157 -181 0
-157 -182 0
-157 -223 0
-166 -175 0
-166 -176 0
-166 -177 0
-166 -178 0
-166 -179 0
-166 -180 0
-166 -181 0
-166 -182 0
-166 -223 0
-175 -176 0
-175 -177 0
-175 -178 0
-175 -179 0
-175 -180 0
-175 -181 0
-175 -182 0
-175 -223 0
-176 -177 0
-176 -178 0
-176 -179 0
-176 -180 0
-176 -181 0
-176 -182 0
-176 -223 0
-177 -178 0
-177 -179 0
-177 -180 0
-177 -181 0
-177 -182 0
-177 -223 0
-178 -179 0
-178 -180 0
-178 -181 0
-178 -182 0
-178 -223 0
-179 -180 0
-179 -181 0
-179 -182 0
-179 -223 0
-180 -181 0
-180 -182 0
-180 -223 0
-181 -182 0
-181 -223 0
-182 -223 0
13 32 50 67 83 98 112 125 137 148 158 167 175 183 184 185 186 187 188 189 224 0
-13 -32 0
-13 -50 0
-13 -67 0
-13 -83 0
-13 -98 0
-13 -112 0
-13 -125 0
-13 -137 0
-13 -148 0
-13 -158 0
-13 -167 0
-13 -175 0
-13 -183 0
-13 -184 0
-13 -185 0
-13 -186 0
-13 -187 0
-13 -188 0
-13 -189 0
-13 -224 0
-32 -50 0
-32 -67 0
-32 -83 0
-32 -98 0
-32 -112 0
-32 -125 0
-32 -137 0
-32 -148 0
-32 -158 0
-32 -167 0
-32 -175 0
-32 -183 0
-32 -184 0
-32 -185 0
-32 -186 0
-32 -187 0
-32 -188 0
-32 -189 0
-32 -224 0
-50 -67 0
-50 -83 0
-50 -98 0
-50 -112 0
-50 -125 0
-50 -137 0
-50 -148 0
-50 -158 0
-50 -167 0
-50 -175 0
-50 -183 0
-50 -184 0
-50 -185 0
-50 -186 0
-50 -187 0
-50 -188 0
-50 -189 0
-50 -224 0
-67 -83 0
-67 -98 0
-67 -112 0
-67 -125 0
-67 -137 0
-67 -148 0
-67 -158 0
-67 -167 0
-67 -175 0
-67 -183 0
-67 -184 0
-67 -185 0
-67 -186 0
-67 -187 0
-67 -188 0
-67 -189 0
-67 -224 0
-83 -98 0
-83 -112 0
-83 -125 0
-83 -137 0
-83 -148 0
-83 -158 0
-83 -167 0
-83 -175 0
-83 -183 0
-83 -184 0
-83 -185 0
-83 -186 0
-83 -187 0
-83 -188 0
-83 -189 0
-83 -224 0
-98 -112 0
-98 -125 0
-98 -137 0
-98 -148 0
-98 -158 0
-98 -167 0
-98 -175 0
-98 -183 0
-98 -184 0
-98 -185 0
-98 -186 0
-98 -187 0
-98 -188 0
-98 -189 0
-98 -224 0
-112 -125 0
-112 -137 0
-112 -148 0
-112 -158 0
-112 -167 0
-112 -175 0
-112 -183 0
-112 -184 0
-112 -185 0
-112 -186 0
-112 -187 0
-112 -188 0
-112 -189 0
-112 -224 0
-125 -137 0
-125 -148 0
-125 -158 0
-125 -167 0
-125 -175 0
-125 -183 0
-125 -184 0
-125 -185 0
-125 -186 0
-125 -187 0
-125 -188 0
-125 -189 0
-125 -224 0
-137 -148 0
-137 -158 0
-137 -167 0
-137 -175 0
-137 -183 0
-137 -184 0
-137 -185 0
-137 -186 0
-137 -187 0
-137 -188 0
-137 -189 0
-137 -224 0
-148 -158 0
-148 -167 0
-148 -175 0
-148 -183 0
-148 -184 0
-148 -185 0
-148 -186 0
-148 -187 0
-148 -188 0
-148 -189 0
-148 -224 0
-158 -167 0
-158 -175 0
-158 -183 0
-158 -184 0
-158 -185 0
-158 -186 0
-158 -187 0
-158 -188 0
-158 -189 0
-158 -224 0
-167 -175 0
-167 -183 0
-167 -184 0
-167 -185 0
-167 -186 0
-167 -187 0
-167 -188 0
-167 -189 0
-167 -224 0
-175 -183 0
-175 -184 0
-175 -185 0
-175 -186 0
-175 -187 0
-175 -188 0
-175 -189 0
-175 -224 0
-183 -184 0
-183 -185 0
-183 -186 0
-183 -187 0
-183 -188 0
-183 -189 0
-183 -224 0
-184 -185 0
-184 -186 0
-184 -187 0
-184 -188 0
-184 -189 0
-184 -224 0
-185 -186 0
-185 -187 0
-185 -188 0
-185 -189 0
-185 -224 0
-186 -187 0
-186 -188 0
-186 -189 0
-186 -224 0
-187 -188 0
-187 -189 0
-187 -224 0
-188 -189 0
-188 -224 0
-189 -224 0
14 33 51 68 84 99 113 126 138 149 159 168 176 183 190 191 192 193 194 195 225 0
-14 -33 0
-14 -51 0
-14 -68 0
-14 -84 0
-14 -99 0
-14 -113 0
-14 -126 0
-14 -138 0
-14 -149 0
-14 -159 0
-14 -168 0
-14 -176 0
-14 -183 0
-14 -190 0
-14 -191 0
-14 -192 0
-14 -193 0
-14 -194 0
-14 -195 0
-14 -225 0
-33 -51 0
-33 -68 0
-33 -84 0
-33 -99 0
-33 -113 0
-33 -126 0
-33 -138 0
-33 -149 0
-33 -159 0
-33 -168 0
-33 -176 0
-33 -183 0
-33 -190 0
-33 -191 0
-33 -192 0
-33 -193 0
-33 -194 0
-33 -195 0
-33 -225 0
-51 -68 0
-51 -84 0
-51 -99 0
-51 -113 0
-51 -126 0
-51 -138 0
-51 -149 0
-51 -159 0
-51 -168 0
-51 -176 0
-51 -183 0
-51 -190 0
-51 -191 0
-51 -192 0
-51 -193 0
-51 -194 0
-51 -195 0
-51 -225 0
-68 -84 0
-68 -99 0
-68 -113 0
-68 -126 0
-68 -138 0
-68 -149 0
-68 -159 0
-68 -168 0
-68 -176 0
-68 -183 0
-68 -190 0
-68 -191 0
-68 -192 0
-68 -193 0
-68 -194 0
-68 -195 0
-68 -225 0
-84 -99 0
-84 -113 0
-84 -126 0
-84 -138 0
-84 -149 0
-84 -159 0
-84 -168 0
-84 -176 0
-84 -183 0
-84 -190 0
-84 -191 0
-84 -192 0
-84 -193 0
-84 -194 0
-84 -195 0
-84 -225 0
-99 -113 0
-99 -126 0
-99 -138 0
-99 -149 0
-99 -159 0
-99 -168 0
-99 -176 0
-99 -183 0
-99 -190 0
-99 -191 0
-99 -192 0
-99 -193 0
-99 -194 0
-99 -195 0
-99 -225 0
-113 -126 0
-113 -138 0
-113 -149 0
-113 -159 0
-113 -168 0
-113 -176 0
-113 -183 0
-113 -190 0
-113 -191 0
-113 -192 0
-113 -193 0
-113 -194 0
-113 -195 0
-113 -225 0
-126 -138 0
-126 -149 0
-126 -159 0
-126 -168 0
-126 -176 0
-126 -183 0
-126 -190 0
-126 -191 0
-126 -192 0
-126 -193 0
-126 -194 0
-126 -195 0
-126 -225 0
-138 -149 0
-138 -159 0
-138 -168 0
-138 -176 0
-138 -183 0
-138 -190 0
-138 -191 0
-138 -192 0
-138 -193 0
-138 -194 0
-138 -195 0
-138 -225 0
-149 -159 0
-149 -168 0
-149 -176 0
-149 -183 0
-149 -190 0
-149 -191 0
-149 -192 0
-149 -193 0
-149 -194 0
-149 -195 0
-149 -225 0
-159 -168 0
-159 -176 0
-159 -183 0
-159 -190 0
-159 -191 0
-159 -192 0
-159 -193 0
-159 -194 0
-159 -195 0
-159 -225 0
-168 -176 0
-168 -183 0
-168 -190 0
-168 -191 0
-168 -192 0
-168 -193 0
-168 -194 0
-168 -195 0
-168 -225 0
-176 -183 0
-176 -190 0
-176 -191 0
-176 -192 0
-176 -193 0
-176 -194 0
-176 -195 0
-176 -225 0
-183 -190 0
-183 -191 0
-183 -192 0
-183 -193 0
-183 -194 0
-183 -195 0
-183 -225 0
-190 -191 0
-190 -192 0
-190 -193 0
-190 -194 0
-190 -195 0
-190 -225 0
-191 -192 0
-191 -193 0
-191 -194 0
-191 -195 0
-191 -225 0
-192 -193 0
-192 -194 0
-192 -195 0
-192 -225 0
-193 -194 0
-193 -195 0
-193 -225 0
-194 -195 0
-194 -225 0
-195 -225 0
15 34 52 69 85 100 114 127 139 150 160 169 177 184 190 196 197 198 199 200 226 0
-15 -34 0
-15 -52 0
-15 -69 0
-15 -85 0
-15 -100 0
-15 -114 0
-15 -127 0
-15 -139 0
-15 -150 0
-15 -160 0
-15 -169 0
-15 -177 0
-15 -184 0
-15 -190 0
-15 -196 0
-15 -197 0
-15 -198 0
-15 -199 0
-15 -200 0
-15 -226 0
-34 -52 0
-34 -69 0
-34 -85 0
-34 -100 0
-34 -114 0
-34 -127 0
-34 -139 0
-34 -150 0
-34 -160 0
-34 -169 0
-34 -177 0
-34 -184 0
-34 -190 0
-34 -196 0
-34 -197 0
-34 -198 0
-34 -199 0
-34 -200 0
-34 -226 0
-52 -69 0
-52 -85 0
-52 -100 0
-52 -114 0
-52 -127 0
-52 -139 0
-52 -150 0
-52 -160 0
-52 -169 0
-52 -177 0
-52 -184 0
-52 -190 0
-52 -196 0
-52 -197 0
-52 -198 0
-52 -199 0
-52 -200 0
-52 -226 0
-69 -85 0
-69 -100 0
-69 -114 0
-69 -127 0
-69 -139 0
-69 -150 0
-69 -160 0
-69 -169 0
-69 -177 0
-69 -184 0
-69 -190 0
-69 -196 0
-69 -197 0
-69 -198 0
-69 -199 0
-69 -200 0
-69 -226 0
-85 -100 0
-85 -114 0
-85 -127 0
-85 -139 0
-85 -150 0
-85 -160 0
-85 -169 0
-85 -177 0
-85 -184 0
-85 -190 0
-85 -196 0
-85 -197 0
-85 -198 0
-85 -199 0
-85 -200 0
-85 -226 0
-100 -114 0
-100 -127 0
-100 -139 0
-100 -150 0
-100 -160 0
-100 -169 0
-100 -177 0
-100 -184 0
-100 -190 0
-100 -196 0
-100 -197 0
-100 -198 0
-100 -199 0
-100 -200 0
-100 -226 0
-114 -127 0
-114 -139 0
-114 -150 0
-114 -160 0
-114 -169 0
-114 -177 0
-114 -184 0
-114 -190 0
-114 -196 0
-114 -197 0
-114 -198 0
-114 -199 0
-114 -200 0
-114 -226 0
-127 -139 0
-127 -150 0
-127 -160 0
-127 -169 0
-127 -177 0
-127 -184 0
-127 -190 0
-127 -196 0
-127 -197 0
-127 -198 0
-127 -199 0
-127 -200 0
-127 -226 0
-139 -150 0
-139 -160 0
-139 -169 0
-139 -177 0
-139 -184 0
-139 -190 0
-139 -196 0
-139 -197 0
-139 -198 0
-139 -199 0
-139 -200 0
-139 -226 0
-150 -160 0
-150 -169 0
-150 -177 0
-150 -184 0
-150 -190 0
-150 -196 0
-150 -197 0
-150 -198 0
-150 -199 0
-150 -200 0
-150 -226 0
-160 -169 0
-160 -177 0
-160 -184 0
-160 -190 0
-160 -196 0
-160 -197 0
-160 -198 0
-160 -199 0
-160 -200 0
-160 -226 0
-169 -177 0
-169 -184 0
-169 -190 0
-169 -196 0
-169 -197 0
-169 -198 0
-169 -199 0
-169 -200 0
-169 -226 0
-177 -184 0
-177 -190 0
-177 -196 0
-177 -197 0
-177 -198 0
-177 -199 0
-177 -200 0
-177 -226 0
-184 -190 0
-184 -196 0
-184 -197 0
-184 -198 0
-184 -199 0
-184 -200 0
-184 -226 0
-190 -196 0
-190 -197 0
-190 -198 0
-190 -199 0
-190 -200 0
-190 -226 0
-196 -197 0
-196 -198 0
-196 -199 0
-196 -200 0
-196 -226 0
-197 -198 0
-197 -199 0
-197 -200 0
-197 -226 0
-198 -199 0
-198 -200 0
-198 -226 0
-199 -200 0
-199 -226 0
-200 -226 0
16 35 53 70 86 101 115 128 140 151 161 170 178 185 191 196 201 202 203 204 227 0
-16 -35 0
-16 -53 0
-16 -70 0
-16 -86 0
-16 -101 0
-16 -115 0
-16 -128 0
-16 -140 0
-16 -151 0
-16 -161 0
-16 -170 0
-16 -178 0
-16 -185 0
-16 -191 0
-16 -196 0
-16 -201 0
-16 -202 0
-16 -203 0
-16 -204 0
-16 -227 0
-35 -53 0
-35 -70 0
-35 -86 0
-35 -101 0
-35 -115 0
-35 -128 0
-35 -140 0
-35 -151 0
-35 -161 0
-35 -170 0
-35 -178 0
-35 -185 0
-35 -191 0
-35 -196 0
-35 -201 0
-35 -202 0
-35 -203 0
-35 -204 0
-35 -227 0
-53 -70 0
-53 -86 0
-53 -101 0
-53 -115 0
-53 -128 0
-53 -140 0
-53 -151 0
-53 -161 0
-53 -170 0
-53 -178 0
-53 -185 0
-53 -191 0
-53 -196 0
-53 -201 0
-53 -202 0
-53 -203 0
-53 -204 0
-53 -227 0
-70 -86 0
-70 -101 0
-70 -115 0
-70 -128 0
-70 -140 0
-70 -151 0
-70 -161 0
-70 -170 0
-70 -178 0
-70 -185 0
-70 -191 0
-70 -196 0
-70 -201 0
-70 -202 0
-70 -203 0
-70 -204 0
-70 -227 0
-86 -101 0
-86 -115 0
-86 -128 0
-86 -140 0
-86 -151 0
-86 -161 0
-86 -170 0
-86 -178 0
-86 -185 0
-86 -191 0
-86 -196 0
-86 -201 0
-86 -202 0
-86 -203 0
-86 -204 0
-86 -227 0
-101 -115 0
-101 -128 0
-101 -140 0
-101 -151 0
-101 -161 0
-101 -170 0
-101 -178 0
-101 -185 0
-101 -191 0
-101 -196 0
-101 -201 0
-101 -202 0
-101 -203 0
-101 -204 0
-101 -227 0
-115 -128 0
-115 -140 0
-115 -151 0
-115 -161 0
-115 -170 0
-115 -178 0
-115 -185 0
-115 -191 0
-115 -196 0
-115 -201 0
-115 -202 0
-115 -203 0
-115 -204 0
-115 -227 0
-128 -140 0
-128 -151 0
-128 -161 0
-128 -170 0
-128 -178 0
-128 -185 0
-128 -191 0
-128 -196 0
-128 -201 0
-128 -202 0
-128 -203 0
-128 -204 0
-128 -227 0
-140 -151 0
-140 -161 0
-140 -170 0
-140 -178 0
-140 -185 0
-140 -191 0
-140 -196 0
-140 -201 0
-140 -202 0
-140 -203 0
-140 -204 0
-140 -227 0
-151 -161 0
-151 -170 0
-151 -178 0
-151 -185 0
-151 -191 0
-151 -196 0
-151 -201 0
-151 -202 0
-151 -203 0
-151 -204 0
-151 -227 0
-161 -170 0
-161 -178 0
-161 -185 0
-161 -191 0
-161 -196 0
-161 -201 0
-161 -202 0
-161 -203 0
-161 -204 0
-161 -227 0
-170 -178 0
-170 -185 0
-170 -191 0
-170 -196 0
-170 -201 0
-170 -202 0
-170 -203 0
-170 -204 0
-170 -227 0
-178 -185 0
-178 -191 0
-178 -196 0
-178 -201 0
-178 -202 0
-178 -203 0
-178 -204 0
-178 -227 0
-185 -191 0
-185 -196 0
-185 -201 0
-185 -202 0
-185 -203 0
-185 -204 0
-185 -227 0
-191 -196 0
-191 -201 0
-191 -202 0
-191 -203 0
-191 -204 0
-191 -227 0
-196 -201 0
-196 -202 0
-196 -203 0
-196 -204 0
-196 -227 0
-201 -202 0
-201 -203 0
-201 -204 0
-201 -227 0
-202 -203 0
-202 -204 0
-202 -227 0
-203 -204 0
-203 -227 0
-204 -227 0
17 36 54 71 87 102 116 129 141 152 162 171 179 186 192 197 201 205 206 207 228 0
-17 -36 0
-17 -54 0
-17 -71 0
-17 -87 0
-17 -102 0
-17 -116 0
-17 -129 0
-17 -141 0
-17 -152 0
-17 -162 0
-17 -171 0
-17 -179 0
-17 -186 0
-17 -192 0
-17 -197 0
-17 -201 0
-17 -205 0
-17 -206 0
-17 -207 0
-17 -228 0
-36 -54 0
-36 -71 0
-36 -87 0
-36 -102 0
-36 -116 0
-36 -129 0
-36 -141 0
-36 -152 0
-36 -162 0
-36 -171 0
-36 -179 0
-36 -186 0
-36 -192 0
-36 -197 0
-36 -201 0
-36 -205 0
-36 -206 0
-36 -207 0
-36 -228 0
-54 -71 0
-54 -87 0
-54 -102 0
-54 -116 0
-54 -129 0
-54 -141 0
-54 -152 0
-54 -162 0
-54 -171 0
-54 -179 0
-54 -186 0
-54 -192 0
-54 -197 0
-54 -201 0
-54 -205 0
-54 -206 0
-54 -207 0
-54 -228 0
-71 -87 0
-71 -102 0
-71 -116 0
-71 -129 0
-71 -141 0
-71 -152 0
-71 -162 0
-71 -171 0
-71 -179 0
-71 -186 0
-71 -192 0
-71 -197 0
-71 -201 0
-71 -205 0
-71 -206 0
-71 -207 0
-71 -228 0
-87 -102 0
-87 -116 0
-87 -129 0
-87 -141 0
-87 -152 0
-87 -162 0
-87 -171 0
-87 -179 0
-87 -186 0
-87 -192 0
-87 -197 0
-87 -201 0
-87 -205 0
-87 -206 0
-87 -207 0
-87 -228 0
-102 -116 0
-102 -129 0
-102 -141 0
-102 -152 0
-102 -162 0
-102 -171 0
-102 -179 0
-102 -186 0
-102 -192 0
-102 -197 0
-102 -201 0
-102 -205 0
-102 -206 0
-102 -207 0
-102 -228 0
-116 -129 0
-116 -141 0
-116 -152 0
-116 -162 0
-116 -171 0
-116 -179 0
-116 -186 0
-116 -192 0
-116 -197 0
-116 -201 0
-116 -205 0
-116 -206 0
-116 -207 0
-116 -228 0
-129 -141 0
-129 -152 0
-129 -162 0
-129 -171 0
-129 -179 0
-129 -186 0
-129 -192 0
-129 -197 0
-129 -201 0
-129 -205 0
-129 -206 0
-129 -207 0
-129 -228 0
-141 -152 0
-141 -162 0
-141 -171 0
-141 -179 0
-141 -186 0
-141 -192 0
-141 -197 0
-141 -201 0
-141 -205 0
-141 -206 0
-141 -207 0
-141 -228 0
-152 -162 0
-152 -171 0
-152 -179 0
-152 -186 0
-152 -192 0
-152 -197 0
-152 -201 0
-152 -205 0
-152 -206 0
-152 -207 0
-152 -228 0
-162 -171 0
-162 -179 0
-162 -186 0
-162 -192 0
-162 -197 0
-162 -201 0
-162 -205 0
-162 -206 0
-162 -207 0
-162 -228 0
-171 -179 0
-171 -186 0
-171 -192 0
-171 -197 0
-171 -201 0
-171 -205 0
-171 -206 0
-171 -207 0
-171 -228 0
-179 -186 0
-179 -192 0
-179 -197 0
-179 -201 0
-179 -205 0
-179 -206 0
-179 -207 0
-179 -228 0
-186 -192 0
-186 -197 0
-186 -201 0
-186 -205 0
-186 -206 0
-186 -207 0
-186 -228 0
-192 -197 0
-192 -201 0
-192 -205 0
-192 -206 0
-192 -207 0
-192 -228 0
-197 -201 0
-197 -205 0
-197 -206 0
-197 -207 0
-197 -228 0
-201 -205 0
-201 -206 0
-201 -207 0
-201 -228 0
-205 -206 0
-205 -207 0
-205 -228 0
-206 -207 0
-206 -228 0
-207 -228 0
18 37 55 72 88 103 117 130 142 153 163 172 180 187 193 198 202 205 208 209 229 0
-18 -37 0
-18 -55 0
-18 -72 0
-18 -88 0
-18 -103 0
-18 -117 0
-18 -130 0
-18 -142 0
-18 -153 0
-18 -163 0
-18 -172 0
-18 -180 0
-18 -187 0
-18 -193 0
-18 -198 0
-18 -202 0
-18 -205 0
-18 -208 0
-18 -209 0
-18 -229 0
-37 -55 0
-37 -72 0
-37 -88 0
-37 -103 0
-37 -117 0
-37 -130 0
-37 -142 0
-37 -153 0
-37 -163 0
-37 -172 0
-37 -180 0
-37 -187 0
-37 -193 0
-37 -198 0
-37 -202 0
-37 -205 0
-37 -208 0
-37 -209 0
-37 -229 0
-55 -72 0
-55 -88 0
-55 -103 0
-55 -117 0
-55 -130 0
-55 -142 0
-55 -153 0
-55 -163 0
-55 -172 0
-55 -180 0
-55 -187 0
-55 -193 0
-55 -198 0
-55 -202 0
-55 -205 0
-55 -208 0
-55 -209 0
-55 -229 0
-72 -88 0
-72 -103 0
-72 -117 0
-72 -130 0
-72 -142 0
-72 -153 0
-72 -163 0
-72 -172 0
-72 -180 0
-72 -187 0
-72 -193 0
-72 -198 0
-72 -202 0
-72 -205 0
-72 -208 0
-72 -209 0
-72 -229 0
-88 -103 0
-88 -117 0
-88 -130 0
-88 -142 0
-88 -153 0
-88 -163 0
-88 -172 0
-88 -180 0
-88 -187 0
-88 -193 0
-88 -198 0
-88 -202 0
-88 -205 0
-88 -208 0
-88 -209 0
-88 -229 0
-103 -117 0
-103 -130 0
-103 -142 0
-103 -153 0
-103 -163 0
-103 -172 0
-103 -180 0
-103 -187 0
-103 -193 0
-103 -198 0
-103 -202 0
-103 -205 0
-103 -208 0
-103 -209 0
-103 -229 0
-117 -130 0
-117 -142 0
-117 -153 0
-117 -163 0
-117 -172 0
-117 -180 0
-117 -187 0
-117 -193 0
-117 -198 0
-117 -202 0
-117 -205 0
-117 -208 0
-117 -209 0
-117 -229 0
-130 -142 0
-130 -153 0
-130 -163 0
-130 -172 0
-130 -180 0
-130 -187 0
-130 -193 0
-130 -198 0
-130 -202 0
-130 -205 0
-130 -208 0
-130 -209 0
-130 -229 0
-142 -153 0
-142 -163 0
-142 -172 0
-142 -180 0
-142 -187 0
-142 -193 0
-142 -198 0
-142 -202 0
-142 -205 0
-142 -208 0
-142 -209 0
-142 -229 0
-153 -163 0
-153 -172 0
-153 -180 0
-153 -187 0
-153 -193 0
-153 -198 0
-153 -202 0
-153 -205 0
-153 -208 0
-153 -209 0
-153 -229 0
-163 -172 0
-163 -180 0
-163 -187 0
-163 -193 0
-163 -198 0
-163 -202 0
-163 -205 0
-163 -208 0
-163 -209 0
-163 -229 0
-172 -180 0
-172 -187 0
-172 -193 0
-172 -198 0
-172 -202 0
-172 -205 0
-172 -208 0
-172 -209 0
-172 -229 0
-180 -187 0
-180 -193 0
-180 -198 0
-180 -202 0
-180 -205 0
-180 -208 0
-180 -209 0
-180 -229 0
-187 -193 0
-187 -198 0
-187 -202 0
-187 -205 0
-187 -208 0
-187 -209 0
-187 -229 0
-193 -198 0
-193 -202 0
-193 -205 0
-193 -208 0
-193 -209 0
-193 -229 0
-198 -202 0
-198 -205 0
-198 -208 0
-198 -209 0
-198 -229 0
-202 -205 0
-202 -208 0
-202 -209 0
-202 -229 0
-205 -208 0
-205 -209 0
-205 -229 0
-208 -209 0
-208 -229 0
-209 -229 0
19 38 56 73 89 104 118 131 143 154 164 173 181 188 194 199 203 206 208 210 230 0
-19 -38 0
-19 -56 0
-19 -73 0
-19 -89 0
-19 -104 0
-19 -118 0
-19 -131 0
-19 -143 0
-19 -154 0
-19 -164 0
-19 -173 0
-19 -181 0
-19 -188 0
-19 -194 0
-19 -199 0
-19 -203 0
-19 -206 0
-19 -208 0
-19 -210 0
-19 -230 0
-38 -56 0
-38 -73 0
-38 -89 0
-38 -104 0
-38 -118 0
-38 -131 0
-38 -143 0
-38 -154 0
-38 -164 0
-38 -173 0
-38 -181 0
-38 -188 0
-38 -194 0
-38 -199 0
-38 -203 0
-38 -206 0
-38 -208 0
-38 -210 0
-38 -230 0
-56 -73 0
-56 -89 0
-56 -104 0
-56 -118 0
-56 -131 0
-56 -143 0
-56 -154 0
-56 -164 0
-56 -173 0
-56 -181 0
-56 -188 0
-56 -194 0
-56 -199 0
-56 -203 0
-56 -206 0
-56 -208 0
-56 -210 0
-56 -230 0
-73 -89 0
-73 -104 0
-73 -118 0
-73 -131 0
-73 -143 0
-73 -154 0
-73 -164 0
-73 -173 0
-73 -181 0
-73 -188 0
-73 -194 0
-73 -199 0
-73 -203 0
-73 -206 0
-73 -208 0
-73 -210 0
-73 -230 0
-89 -104 0
-89 -118 0
-89 -131 0
-89 -143 0
-89 -154 0
-89 -164 0
-89 -173 0
-89 -181 0
-89 -188 0
-89 -194 0
-89 -199 0
-89 -203 0
-89 -206 0
-89 -208 0
-89 -210 0
-89 -230 0
-104 -118 0
-104 -131 0
-104 -143 0
-104 -154 0
-104 -164 0
-104 -173 0
-104 -181 0
-104 -188 0
-104 -194 0
-104 -199 0
-104 -203 0
-104 -206 0
-104 -208 0
-104 -210 0
-104 -230 0
-118 -131 0
-118 -143 0
-118 -154 0
-118 -164 0
-118 -173 0
-118 -181 0
-118 -188 0
-118 -194 0
-118 -199 0
-118 -203 0
-118 -206 0
-118 -208 0
-118 -210 0
-118 -230 0
-131 -143 0
-131 -154 0
-131 -164 0
-131 -173 0
-131 -181 0
-131 -188 0
-131 -194 0
-131 -199 0
-131 -203 0
-131 -206 0
-131 -208 0
-131 -210 0
-131 -230 0
-143 -154 0
-143 -164 0
-143 -173 0
-143 -181 0
-143 -188 0
-143 -194 0
-143 -199 0
-143 -203 0
-143 -206 0
-143 -208 0
-143 -210 0
-143 -230 0
-154 -164 0
-154 -173 0
-154 -181 0
-154 -188 0
-154 -194 0
-154 -199 0
-154 -203 0
-154 -206 0
-154 -208 0
-154 -210 0
-154 -230 0
-164 -173 0
-164 -181 0
-164 -188 0
-164 -194 0
-164 -199 0
-164 -203 0
-164 -206 0
-164 -208 0
-164 -210 0
-164 -230 0
-173 -181 0
-173 -188 0
-173 -194 0
-173 -199 0
-173 -203 0
-173 -206 0
-173 -208 0
-173 -210 0
-173 -230 0
-181 -188 0
-181 -194 0
-181 -199 0
-181 -203 0
-181 -206 0
-181 -208 0
-181 -210 0
-181 -230 0
-188 -194 0
-188 -199 0
-188 -203 0
-188 -206 0
-188 -208 0
-188 -210 0
-188 -230 0
-194 -199 0
-194 -203 0
-194 -206 0
-194 -208 0
-194 -210 0
-194 -230 0
-199 -203 0
-199 -206 0
-199 -208 0
-199 -210 0
-199 -230 0
-203 -206 0
-203 -208 0
-203 -210 0
-203 -230 0
-206 -208 0
-206 -210 0
-206 -230 0
-208 -210 0
-208 -230 0
-210 -230 0
20 39 57 74 90 105 119 132 144 155 165 174 182 189 195 200 204 207 209 210 231 0
-20 -39 0
-20 -57 0
-20 -74 0
-20 -90 0
-20 -105 0
-20 -119 0
-20 -132 0
-20 -144 0
-20 -155 0
-20 -165 0
-20 -174 0
-20 -182 0
-20 -189 0
-20 -195 0
-20 -200 0
-20 -204 0
-20 -207 0
-20 -209 0
-20 -210 0
-20 -231 0
-39 -57 0
-39 -74 0
-39 -90 0
-39 -105 0
-39 -119 0
-39 -132 0
-39 -144 0
-39 -155 0
-39 -165 0
-39 -174 0
-39 -182 0
-39 -189 0
-39 -195 0
-39 -200 0
-39 -204 0
-39 -207 0
-39 -209 0
-39 -210 0
-39 -231 0
-57 -74 0
-57 -90 0
-57 -105 0
-57 -119 0
-57 -132 0
-57 -144 0
-57 -155 0
-57 -165 0
-57 -174 0
-57 -182 0
-57 -189 0
-57 -195 0
-57 -200 0
-57 -204 0
-57 -207 0
-57 -209 0
-57 -210 0
-57 -231 0
-74 -90 0
-74 -105 0
-74 -119 0
-74 -132 0
-74 -144 0
-74 -155 0
-74 -165 0
-74 -174 0
-74 -182 0
-74 -189 0
-74 -195 0
-74 -200 0
-74 -204 0
-74 -207 0
-74 -209 0
-74 -210 0
-74 -231 0
-90 -105 0
-90 -119 0
-90 -132 0
-90 -144 0
-90 -155 0
-90 -165 0
-90 -174 0
-90 -182 0
-90 -189 0
-90 -195 0
-90 -200 0
-90 -204 0
-90 -207 0
-90 -209 0
-90 -210 0
-90 -231 0
-105 -119 0
-105 -132 0
-105 -144 0
-105 -155 0
-105 -165 0
-105 -174 0
-105 -182 0
-105 -189 0
-105 -195 0
-105 -200 0
-105 -204 0
-105 -207 0
-105 -209 0
-105 -210 0
-105 -231 0
-119 -132 0
-119 -144 0
-119 -155 0
-119 -165 0
-119 -174 0
-119 -182 0
-119 -189 0
-119 -195 0
-119 -200 0
-119 -204 0
-119 -207 0
-119 -209 0
-119 -210 0
-119 -231 0
-132 -144 0
-132 -155 0
-132 -165 0
-132 -174 0
-132 -182 0
-132 -189 0
-132 -195 0
-132 -200 0
-132 -204 0
-132 -207 0
-132 -209 0
-132 -210 0
-132 -231 0
-144 -155 0
-144 -165 0
-144 -174 0
-144 -182 0
-144 -189 0
-144 -195 0
-144 -200 0
-144 -204 0
-144 -207 0
-144 -209 0
-144 -210 0
-144 -231 0
-155 -165 0
-155 -174 0
-155 -182 0
-155 -189 0
-155 -195 0
-155 -200 0
-155 -204 0
-155 -207 0
-155 -209 0
-155 -210 0
-155 -231 0
-165 -174 0
-165 -182 0
-165 -189 0
-165 -195 0
-165 -200 0
-165 -204 0
-165 -207 0
-165 -209 0
-165 -210 0
-165 -231 0
-174 -182 0
-174 -189 0
-174 -195 0
-174 -200 0
-174 -204 0
-174 -207 0
-174 -209 0
-174 -210 0
-174 -231 0
-182 -189 0
-182 -195 0
-182 -200 0
-182 -204 0
-182 -207 0
-182 -209 0
-182 -210 0
-182 -231 0
-189 -195 0
-189 -200 0
-189 -204 0
-189 -207 0
-189 -209 0
-189 -210 0
-189 -231 0
-195 -200 0
-195 -204 0
-195 -207 0
-195 -209 0
-195 -210 0
-195 -231 0
-200 -204 0
-200 -207 0
-200 -209 0
-200 -210 0
-200 -231 0
-204 -207 0
-204 -209 0
-204 -210 0
-204 -231 0
-207 -209 0
-207 -210 0
-207 -231 0
-209 -210 0
-209 -231 0
-210 -231 0
211 212 213 214 215 216 217 218 219 220 221 222 223 224 225 226 227 228 229 230 231 0
-211 -212 0
-211 -213 0
-211 -214 0
-211 -215 0
-211 -216 0
-211 -217 0
-211 -218 0
-211 -219 0
-211 -220 0
-211 -221 0
-211 -222 0
-211 -223 0
-211 -224 0
-211 -225 0
-211 -226 0
-211 -227 0
-211 -228 0
-211 -229 0
-211 -230 0
-211 -231 0
-212 -213 0
-212 -214 0
-212 -215 0
-212 -216 0
-212 -217 0
-212 -218 0
-212 -219 0
-212 -220 0
-212 -221 0
-212 -222 0
-212 -223 0
-212 -224 0
-212 -225 0
-212 -226 0
-212 -227 0
-212 -228 0
-212 -229 0
-212 -230 0
-212 -231 0
-213 -214 0
-213 -215 0
-213 -216 0
-213 -217 0
-213 -218 0
-213 -219 0
-213 -220 0
-213 -221 0
-213 -222 0
-213 -223 0
-213 -224 0
-213 -225 0
-213 -226 0
-213 -227 0
-213 -228 0
-213 -229 0
-213 -230 0
-213 -231 0
-214 -215 0
-214 -216 0
-214 -217 0
-214 -218 0
-214 -219 0
-214 -220 0
-214 -221 0
-214 -222 0
-214 -223 0
-214 -224 0
-214 -225 0
-214 -226 0
-214 -227 0
-214 -228 0
-214 -229 0
-214 -230 0
-214 -231 0
-215 -216 0
-215 -217 0
-215 -218 0
-215 -219 0
-215 -220 0
-215 -221 0
-215 -222 0
-215 -223 0
-215 -224 0
-215 -225 0
-215 -226 0
-215 -227 0
-215 -228 0
-215 -229 0
-215 -230 0
-215 -231 0
-216 -217 0
-216 -218 0
-216 -219 0
-216 -220 0
-216 -221 0
-216 -222 0
-216 -223 0
-216 -224 0
-216 -225 0
-216 -226 0
-216 -227 0
-216 -228 0
-216 -229 0
-216 -230 0
-216 -231 0
-217 -218 0
-217 -219 0
-217 -220 0
-217 -221 0
-217 -222 0
-217 -223 0
-217 -224 0
-217 -225 0
-217 -226 0
-217 -227 0
-217 -228 0
-217 -229 0
-217 -230 0
-217 -231 0
-218 -219 0
-218 -220 0
-218 -221 0
-218 -222 0
-218 -223 0
-218 -224 0
-218 -225 0
-218 -226 0
-218 -227 0
-218 -228 0
-218 -229 0
-218 -230 0
-218 -231 0
-219 -220 0
-219 -221 0
-219 -222 0
-219 -223 0
-219 -224 0
-219 -225 0
-219 -226 0
-219 -227 0
-219 -228 0
-219 -229 0
-219 -230 0
-219 -231 0
-220 -221 0
-220 -222 0
-220 -223 0
-220 -224 0
-220 -225 0
-220 -226 0
-220 -227 0
-220 -228 0
-220 -229 0
-220 -230 0
-220 -231 0
-221 -222 0
-221 -223 0
-221 -224 0
-221 -225 0
-221 -226 0
-221 -227 0
-221 -228 0
-221 -229 0
-221 -230 0
-221 -231 0
-222 -223 0
-222 -224 0
-222 -225 0
-222 -226 0
-222 -227 0
-222 -228 0
-222 -229 0
-222 -230 0
-222 -231 0
-223 -224 0
-223 -225 0
-223 -226 0
-223 -227 0
-223 -228 0
-223 -229 0
-223 -230 0
-223 -231 0
-224 -225 0
-224 -226 0
-224 -227 0
-224 -228 0
-224 -229 0
-224 -230 0
-224 -231 0
-225 -226 0
-225 -227 0
-225 -228 0
-225 -229 0
-225 -230 0
-225 -231 0
-226 -227 0
-226 -228 0
-226 -229 0
-226 -230 0
-226 -231 0
-227 -228 0
-227 -229 0
-227 -230 0
-227 -231 0
-228 -229 0
-228 -230 0
-228 -231 0
-229 -230 0
-229 -231 0
-230 -231 0
-232 1 0
-1 232 0
-233 2 0
-2 233 0
-234 3 0
-3 234 0
-235 4 0
-4 235 0
-236 5 0
-5 236 0
-237 6 0
-6 237 0
-238 7 0
-7 238 0
-239 8 0
-8 239 0
-240 9 0
-9 240 0
-241 10 0
-10 241 0
-242 11 0
-11 242 0
-243 12 0
-12 243 0
-244 211 0
-211 244 0
-245 14 0
-14 245 0
-246 13 0
-13 246 0
-247 16 0
-16 247 0
-248 15 0
-15 248 0
-249 18 0
-18 249 0
-250 17 0
-17 250 0
-251 20 0
-20 251 0
-252 19 0
-19 252 0
-253 212 0
-212 253 0
-254 21 0
-21 254 0
-255 22 0
-22 255 0
-256 23 0
-23 256 0
-257 24 0
-24 257 0
-258 25 0
-25 258 0
-259 26 0
-26 259 0
-260 27 0
-27 260 0
-261 28 0
-28 261 0
-262 29 0
-29 262 0
-263 30 0
-30 263 0
-264 31 0
-31 264 0
-265 1 0
-1 265 0
-266 33 0
-33 266 0
-267 32 0
-32 267 0
-268 35 0
-35 268 0
-269 34 0
-34 269 0
-270 37 0
-37 270 0
-271 36 0
-36 271 0
-272 39 0
-39 272 0
-273 38 0
-38 273 0
-274 21 0
-21 274 0
-275 213 0
-213 275 0
-276 40 0
-40 276 0
-277 41 0
-41 277 0
-278 42 0
-42 278 0
-279 43 0
-43 279 0
-280 44 0
-44 280 0
-281 45 0
-45 281 0
-282 46 0
-46 282 0
-283 47 0
-47 283 0
-284 48 0
-48 284 0
-285 49 0
-49 285 0
-286 2 0
-2 286 0
-287 51 0
-51 287 0
-288 50 0
-50 288 0
-289 53 0
-53 289 0
-290 52 0
-52 290 0
-291 55 0
-55 291 0
-292 54 0
-54 292 0
-293 57 0
-57 293 0
-294 56 0
-56 294 0
-295 22 0
-22 295 0
-296 40 0
-40 296 0
-297 214 0
-214 297 0
-298 58 0
-58 298 0
-299 59 0
-59 299 0
-300 60 0
-60 300 0
-301 61 0
-61 301 0
-302 62 0
-62 302 0
-303 63 0
-63 303 0
-304 64 0
-64 304 0
-305 65 0
-65 305 0
-306 66 0
-66 306 0
-307 3 0
-3 307 0
-308 68 0
-68 308 0
-309 67 0
-67 309 0
-310 70 0
-70 310 0
-311 69 0
-69 311 0
-312 72 0
-72 312 0
-313 71 0
-71 313 0
-314 74 0
-74 314 0
-315 73 0
-73 315 0
-316 23 0
-23 316 0
-317 41 0
-41 317 0
-318 58 0
-58 318 0
-319 215 0
-215 319 0
-320 75 0
-75 320 0
-321 76 0
-76 321 0
-322 77 0
-77 322 0
-323 78 0
-78 323 0
-324 79 0
-79 324 0
-325 80 0
-80 325 0
-326 81 0
-81 326 0
-327 82 0
-82 327 0
-328 4 0
-4 328 0
-329 84 0
-84 329 0
-330 83 0
-83 330 0
-331 86 0
-86 331 0
-332 85 0
-85 332 0
-333 88 0
-88 333 0
-334 87 0
-87 334 0
-335 90 0
-90 335 0
-336 89 0
-89 336 0
-337 24 0
-24 337 0
-338 42 0
-42 338 0
-339 59 0
-59 339 0
-340 75 0
-75 340 0
-341 216 0
-216 341 0
-342 91 0
-91 342 0
-343 92 0
-92 343 0
-344 93 0
-93 344 0
-345 94 0
-94 345 0
-346 95 0
-95 346 0
-347 96 0
-96 347 0
-348 97 0
-97 348 0
-349 5 0
-5 349 0
-350 99 0
-99 350 0
-351 98 0
-98 351 0
-352 101 0
-101 352 0
-353 100 0
-100 353 0
-354 103 0
-103 354 0
-355 102 0
-102 355 0
-356 105 0
-105 356 0
-357 104 0
-104 357 0
-358 25 0
-25 358 0
-359 43 0
-43 359 0
-360 60 0
-60 360 0
-361 76 0
-76 361 0
-362 91 0
-91 362 0
-363 217 0
-217 363 0
-364 106 0
-106 364 0
-365 107 0
-107 365 0
-366 108 0
-108 366 0
-367 109 0
-109 367 0
-368 110 0
-110 368 0
-369 111 0
-111 369 0
-370 6 0
-6 370 0
-371 113 0
-113 371 0
-372 112 0
-112 372 0
-373 115 0
-115 373 0
-374 114 0
-114 374 0
-375 117 0
-117 375 0
-376 116 0
-116 376 0
-377 119 0
-119 377 0
-378 118 0
-118 378 0
-379 26 0
-26 379 0
-380 44 0
-44 380 0
-381 61 0
-61 381 0
-382 77 0
-77 382 0
-383 92 0
-92 383 0
-384 106 0
-106 384 0
-385 218 0
-218 385 0
-386 120 0
-120 386 0
-387 121 0
-121 387 0
-388 122 0
-122 388 0
-389 123 0
-123 389 0
-390 124 0
-124 390 0
-391 7 0
-7 391 0
-392 126 0
-126 392 0
-393 125 0
-125 393 0
-394 128 0
-128 394 0
-395 127 0
-127 395 0
-396 130 0
-130 396 0
-397 129 0
-129 397 0
-398 132 0
-132 398 0
-399 131 0
-131 399 0
-400 27 0
-27 400 0
-401 45 0
-45 401 0
-402 62 0
-62 402 0
-403 78 0
-78 403 0
-404 93 0
-93 404 0
-405 107 0
-107 405 0
-406 120 0
-120 406 0
-407 219 0
-219 407 0
-408 133 0
-133 408 0
-409 134 0
-134 409 0
-410 135 0
-135 410 0
-411 136 0
-136 411 0
-412 8 0
-8 412 0
-413 138 0
-138 413 0
-414 137 0
-137 414 0
-415 140 0
-140 415 0
-416 139 0
-139 416 0
-417 142 0
-142 417 0
-418 141 0
-141 418 0
-419 144 0
-144 419 0
-420 143 0
-143 420 0
-421 28 0
-28 421 0
-422 46 0
-46 422 0
-423 63 0
-63 423 0
-424 79 0
-79 424 0
-425 94 0
-94 425 0
-426 108 0
-108 426 0
-427 121 0
-121 427 0
-428 133 0
-133 428 0
-429 220 0
-220 429 0
-430 145 0
-145 430 0
-431 146 0
-146 431 0
-432 147 0
-147 432 0
-433 9 0
-9 433 0
-434 149 0
-149 434 0
-435 148 0
-148 435 0
-436 151 0
-151 436 0
-437 150 0
-150 437 0
-438 153 0
-153 438 0
-439 152 0
-152 439 0
-440 155 0
-155 440 0
-441 154 0
-154 441 0
-442 29 0
-29 442 0
-443 47 0
-47 443 0
-444 64 0
-64 444 0
-445 80 0
-80 445 0
-446 95 0
-95 446 0
-447 109 0
-109 447 0
-448 122 0
-122 448 0
-449 134 0
-134 449 0
-450 145 0
-145 450 0
-451 221 0
-221 451 0
-452 156 0
-156 452 0
-453 157 0
-157 453 0
-454 10 0
-10 454 0
-455 159 0
-159 455 0
-456 158 0
-158 456 0
-457 161 0
-161 457 0
-458 160 0
-160 458 0
-459 163 0
-163 459 0
-460 162 0
-162 460 0
-461 165 0
-165 461 0
-462 164 0
-164 462 0
-463 30 0
-30 463 0
-464 48 0
-48 464 0
-465 65 0
-65 465 0
-466 81 0
-81 466 0
-467 96 0
-96 467 0
-468 110 0
-110 468 0
-469 123 0
-123 469 0
-470 135 0
-135 470 0
-471 146 0
-146 471 0
-472 156 0
-156 472 0
-473 222 0
-222 473 0
-474 166 0
-166 474 0
-475 11 0
-11 475 0
-476 168 0
-168 476 0
-477 167 0
-167 477 0
-478 170 0
-170 478 0
-479 169 0
-169 479 0
-480 172 0
-172 480 0
-481 171 0
-171 481 0
-482 174 0
-174 482 0
-483 173 0
-173 483 0
-484 31 0
-31 484 0
-485 49 0
-49 485 0
-486 66 0
-66 486 0
-487 82 0
-82 487 0
-488 97 0
-97 488 0
-489 111 0
-111 489 0
-490 124 0
-124 490 0
-491 136 0
-136 491 0
-492 147 0
-147 492 0
-493 157 0
-157 493 0
-494 166 0
-166 494 0
-495 223 0
-223 495 0
-496 12 0
-12 496 0
-497 176 0
-176 497 0
-498 175 0
-175 498 0
-499 178 0
-178 499 0
-500 177 0
-177 500 0
-501 180 0
-180 501 0
-502 179 0
-179 502 0
-503 182 0
-182 503 0
-504 181 0
-181 504 0
-505 32 0
-32 505 0
-506 50 0
-50 506 0
-507 67 0
-67 507 0
-508 83 0
-83 508 0
-509 98 0
-98 509 0
-510 112 0
-112 510 0
-511 125 0
-125 511 0
-512 137 0
-137 512 0
-513 148 0
-148 513 0
-514 158 0
-158 514 0
-515 167 0
-167 515 0
-516 175 0
-175 516 0
-517 13 0
-13 517 0
-518 183 0
-183 518 0
-519 224 0
-224 519 0
-520 185 0
-185 520 0
-521 184 0
-184 521 0
-522 187 0
-187 522 0
-523 186 0
-186 523 0
-524 189 0
-189 524 0
-525 188 0
-188 525 0
-526 33 0
-33 526 0
-527 51 0
-51 527 0
-528 68 0
-68 528 0
-529 84 0
-84 529 0
-530 99 0
-99 530 0
-531 113 0
-113 531 0
-532 126 0
-126 532 0
-533 138 0
-138 533 0
-534 149 0
-149 534 0
-535 159 0
-159 535 0
-536 168 0
-168 536 0
-537 176 0
-176 537 0
-538 14 0
-14 538 0
-539 225 0
-225 539 0
-540 183 0
-183 540 0
-541 191 0
-191 541 0
-542 190 0
-190 542 0
-543 193 0
-193 543 0
-544 192 0
-192 544 0
-545 195 0
-195 545 0
-546 194 0
-194 546 0
-547 34 0
-34 547 0
-548 52 0
-52 548 0
-549 69 0
-69 549 0
-550 85 0
-85 550 0
-551 100 0
-100 551 0
-552 114 0
-114 552 0
-553 127 0
-127 553 0
-554 139 0
-139 554 0
-555 150 0
-150 555 0
-556 160 0
-160 556 0
-557 169 0
-169 557 0
-558 177 0
-177 558 0
-559 15 0
-15 559 0
-560 190 0
-190 560 0
-561 184 0
-184 561 0
-562 196 0
-196 562 0
-563 226 0
-226 563 0
-564 198 0
-198 564 0
-565 197 0
-197 565 0
-566 200 0
-200 566 0
-567 199 0
-199 567 0
-568 35 0
-35 568 0
-569 53 0
-53 569 0
-570 70 0
-70 570 0
-571 86 0
-86 571 0
-572 101 0
-101 572 0
-573 115 0
-115 573 0
-574 128 0
-128 574 0
-575 140 0
-140 575 0
-576 151 0
-151 576 0
-577 161 0
-161 577 0
-578 170 0
-170 578 0
-579 178 0
-178 579 0
-580 16 0
-16 580 0
-581 191 0
-191 581 0
-582 185 0
-185 582 0
-583 227 0
-227 583 0
-584 196 0
-196 584 0
-585 202 0
-202 585 0
-586 201 0
-201 586 0
-587 204 0
-204 587 0
-588 203 0
-203 588 0
-589 36 0
-36 589 0
-590 54 0
-54 590 0
-591 71 0
-71 591 0
-592 87 0
-87 592 0
-593 102 0
-102 593 0
-594 116 0
-116 594 0
-595 129 0
-129 595 0
-596 141 0
-141 596 0
-597 152 0
-152 597 0
-598 162 0
-162 598 0
-599 171 0
-171 599 0
-600 179 0
-179 600 0
-601 17 0
-17 601 0
-602 192 0
-192 602 0
-603 186 0
-186 603 0
-604 201 0
-201 604 0
-605 197 0
-197 605 0
-606 205 0
-205 606 0
-607 228 0
-228 607 0
-608 207 0
-207 608 0
-609 206 0
-206 609 0
-610 37 0
-37 610 0
-611 55 0
-55 611 0
-612 72 0
-72 612 0
-613 88 0
-88 613 0
-614 103 0
-103 614 0
-615 117 0
-117 615 0
-616 130 0
-130 616 0
-617 142 0
-142 617 0
-618 153 0
-153 618 0
-619 163 0
-163 619 0
-620 172 0
-172 620 0
-621 180 0
-180 621 0
-622 18 0
-18 622 0
-623 193 0
-193 623 0
-624 187 0
-187 624 0
-625 202 0
-202 625 0
-626 198 0
-198 626 0
-627 229 0
-229 627 0
-628 205 0
-205 628 0
-629 209 0
-209 629 0
-630 208 0
-208 630 0
-631 38 0
-38 631 0
-632 56 0
-56 632 0
-633 73 0
-73 633 0
-634 89 0
-89 634 0
-635 104 0
-104 635 0
-636 118 0
-118 636 0
-637 131 0
-131 637 0
-638 143 0
-143 638 0
-639 154 0
-154 639 0
-640 164 0
-164 640 0
-641 173 0
-173 641 0
-642 181 0
-181 642 0
-643 19 0
-19 643 0
-644 194 0
-194 644 0
-645 188 0
-188 645 0
-646 203 0
-203 646 0
-647 199 0
-199 647 0
-648 208 0
-208 648 0
-649 206 0
-206 649 0
-650 210 0
-210 650 0
-651 230 0
-230 651 0
-652 39 0
-39 652 0
-653 57 0
-57 653 0
-654 74 0
-74 654 0
-655 90 0
-90 655 0
-656 105 0
-105 656 0
-657 119 0
-119 657 0
-658 132 0
-132 658 0
-659 144 0
-144 659 0
-660 155 0
-155 660 0
-661 165 0
-165 661 0
-662 174 0
-174 662 0
-663 182 0
-182 663 0
-664 20 0
-20 664 0
-665 195 0
-195 665 0
-666 189 0
-189 666 0
-667 204 0
-204 667 0
-668 200 0
-200 668 0
-669 209 0
-209 669 0
-670 207 0
-207 670 0
-671 231 0
-231 671 0
-672 210 0
-210 672 0
-232 -232 232 0
-232 -233 253 0
-232 -234 274 0
-232 -235 295 0
-232 -236 316 0
-232 -237 337 0
-232 -238 358 0
-232 -239 379 0
-232 -240 400 0
-232 -241 421 0
-232 -242 442 0
-232 -243 463 0
-232 -244 484 0
-232 -245 505 0
-232 -246 526 0
-232 -247 547 0
-232 -248 568 0
-232 -249 589 0
-232 -250 610 0
-232 -251 631 0
-232 -252 652 0
-233 -253 232 0
-233 -254 253 0
-233 -255 274 0
-233 -256 295 0
-233 -257 316 0
-233 -258 337 0
-233 -259 358 0
-233 -260 379 0
-233 -261 400 0
-233 -262 421 0
-233 -263 442 0
-233 -264 463 0
-233 -265 484 0
-233 -266 505 0
-233 -267 526 0
-233 -268 547 0
-233 -269 568 0
-233 -270 589 0
-233 -271 610 0
-233 -272 631 0
-233 -273 652 0
-234 -274 232 0
-234 -275 253 0
-234 -276 274 0
-234 -277 295 0
-234 -278 316 0
-234 -279 337 0
-234 -280 358 0
-234 -281 379 0
-234 -282 400 0
-234 -283 421 0
-234 -284 442 0
-234 -285 463 0
-234 -286 484 0
-234 -287 505 0
-234 -288 526 0
-234 -289 547 0
-234 -290 568 0
-234 -291 589 0
-234 -292 610 0
-234 -293 631 0
-234 -294 652 0
-235 -295 232 0
-235 -296 253 0
-235 -297 274 0
-235 -298 295 0
-235 -299 316 0
-235 -300 337 0
-235 -301 358 0
-235 -302 379 0
-235 -303 400 0
-235 -304 421 0
-235 -305 442 0
-235 -306 463 0
-235 -307 484 0
-235 -308 505 0
-235 -309 526 0
-235 -310 547 0
-235 -311 568 0
-235 -312 589 0
-235 -313 610 0
-235 -314 631 0
-235 -315 652 0
-236 -316 232 0
-236 -317 253 0
-236 -318 274 0
-236 -319 295 0
-236 -320 316 0
-236 -321 337 0
-236 -322 358 0
-236 -323 379 0
-236 -324 400 0
-236 -325 421 0
-236 -326 442 0
-236 -327 463 0
-236 -328 484 0
-236 -329 505 0
-236 -330 526 0
-236 -331 547 0
-236 -332 568 0
-236 -333 589 0
-236 -334 610 0
-236 -335 631 0
-236 -336 652 0
-237 -337 232 0
-237 -338 253 0
-237 -339 274 0
-237 -340 295 0
-237 -341 316 0
-237 -342 337 0
-237 -343 358 0
-237 -344 379 0
-237 -345 400 0
-237 -346 421 0
-237 -347 442 0
-237 -348 463 0
-237 -349 484 0
-237 -350 505 0
-237 -351 526 0
-237 -352 547 0
-237 -353 568 0
-237 -354 589 0
-237 -355 610 0
-237 -356 631 0
-237 -357 652 0
-238 -358 232 0
-238 -359 253 0
-238 -360 274 0
-238 -361 295 0
-238 -362 316 0
-238 -363 337 0
-238 -364 358 0
-238 -365 379 0
-238 -366 400 0
-238 -367 421 0
-238 -368 442 0
-238 -369 463 0
-238 -370 484 0
-238 -371 505 0
-238 -372 526 0
-238 -373 547 0
-238 -374 568 0
-238 -375 589 0
-238 -376 610 0
-238 -377 631 0
-238 -378 652 0
-239 -379 232 0
-239 -380 253 0
-239 -381 274 0
-239 -382 295 0
-239 -383 316 0
-239 -384 337 0
-239 -385 358 0
-239 -386 379 0
-239 -387 400 0
-239 -388 421 0
-239 -389 442 0
-239 -390 463 0
-239 -391 484 0
-239 -392 505 0
-239 -393 526 0
-239 -394 547 0
-239 -395 568 0
-239 -396 589 0
-239 -397 610 0
-239 -398 631 0
-239 -399 652 0
-240 -400 232 0
-240 -401 253 0
-240 -402 274 0
-240 -403 295 0
-240 -404 316 0
-240 -405 337 0
-240 -406 358 0
-240 -407 379 0
-240 -408 400 0
-240 -409 421 0
-240 -410 442 0
-240 -411 463 0
-240 -412 484 0
-240 -413 505 0
-240 -414 526 0
-240 -415 547 0
-240 -416 568 0
-240 -417 589 0
-240 -418 610 0
-240 -419 631 0
-240 -420 652 0
-241 -421 232 0
-241 -422 253 0
-241 -423 274 0
-241 -424 295 0
-241 -425 316 0
-241 -426 337 0
-241 -427 358 0
-241 -428 379 0
-241 -429 400 0
-241 -430 421 0
-241 -431 442 0
-241 -432 463 0
-241 -433 484 0
-241 -434 505 0
-241 -435 526 0
-241 -436 547 0
-241 -437 568 0
-241 -438 589 0
-241 -439 610 0
-241 -440 631 0
-241 -441 652 0
-242 -442 232 0
-242 -443 253 0
-242 -444 274 0
-242 -445 295 0
-242 -446 316 0
-242 -447 337 0
-242 -448 358 0
-242 -449 379 0
-242 -450 400 0
-242 -451 421 0
-242 -452 442 0
-242 -453 463 0
-242 -454 484 0
-242 -455 505 0
-242 -456 526 0
-242 -457 547 0
-242 -458 568 0
-242 -459 589 0
-242 -460 610 0
-242 -461 631 0
-242 -462 652 0
-243 -463 232 0
-243 -464 253 0
-243 -465 274 0
-243 -466 295 0
-243 -467 316 0
-243 -468 337 0
-243 -469 358 0
-243 -470 379 0
-243 -471 400 0
-243 -472 421 0
-243 -473 442 0
-243 -474 463 0
-243 -475 484 0
-243 -476 505 0
-243 -477 526 0
-243 -478 547 0
-243 -479 568 0
-243 -480 589 0
-243 -481 610 0
-243 -482 631 0
-243 -483 652 0
-244 -484 232 0
-244 -485 253 0
-244 -486 274 0
-244 -487 295 0
-244 -488 316 0
-244 -489 337 0
-244 -490 358 0
-244 -491 379 0
-244 -492 400 0
-244 -493 421 0
-244 -494 442 0
-244 -495 463 0
-244 -496 484 0
-244 -497 505 0
-244 -498 526 0
-244 -499 547 0
-244 -500 568 0
-244 -501 589 0
-244 -502 610 0
-244 -503 631 0
-244 -504 652 0
-245 -505 232 0
-245 -506 253 0
-245 -507 274 0
-245 -508 295 0
-245 -509 316 0
-245 -510 337 0
-245 -511 358 0
-245 -512 379 0
-245 -513 400 0
-245 -514 421 0
-245 -515 442 0
-245 -516 463 0
-245 -517 484 0
-245 -518 505 0
-245 -519 526 0
-245 -520 547 0
-245 -521 568 0
-245 -522 589 0
-245 -523 610 0
-245 -524 631 0
-245 -525 652 0
-246 -526 232 0
-246 -527 253 0
-246 -528 274 0
-246 -529 295 0
-246 -530 316 0
-246 -531 337 0
-246 -532 358 0
-246 -533 379 0
-246 -534 400 0
-246 -535 421 0
-246 -536 442 0
-246 -537 463 0
-246 -538 484 0
-246 -539 505 0
-246 -540 526 0
-246 -541 547 0
-246 -542 568 0
-246 -543 589 0
-246 -544 610 0
-246 -545 631 0
-246 -546 652 0
-247 -547 232 0
-247 -548 253 0
-247 -549 274 0
-247 -550 295 0
-247 -551 316 0
-247 -552 337 0
-247 -553 358 0
-247 -554 379 0
-247 -555 400 0
-247 -556 421 0
-247 -557 442 0
-247 -558 463 0
-247 -559 484 0
-247 -560 505 0
-247 -561 526 0
-247 -562 547 0
-247 -563 568 0
-247 -564 589 0
-247 -565 610 0
-247 -566 631 0
-247 -567 652 0
-248 -568 232 0
-248 -569 253 0
-248 -570 274 0
-248 -571 295 0
-248 -572 316 0
-248 -573 337 0
-248 -574 358 0
-248 -575 379 0
-248 -576 400 0
-248 -577 421 0
-248 -578 442 0
-248 -579 463 0
-248 -580 484 0
-248 -581 505 0
-248 -582 526 0
-248 -583 547 0
-248 -584 568 0
-248 -585 589 0
-248 -586 610 0
-248 -587 631 0
-248 -588 652 0
-249 -589 232 0
-249 -590 253 0
-249 -591 274 0
-249 -592 295 0
-249 -593 316 0
-249 -594 337 0
-249 -595 358 0
-249 -596 379 0
-249 -597 400 0
-249 -598 421 0
-249 -599 442 0
-249 -600 463 0
-249 -601 484 0
-249 -602 505 0
-249 -603 526 0
-249 -604 547 0
-249 -605 568 0
-249 -606 589 0
-249 -607 610 0
-249 -608 631 0
-249 -609 652 0
-250 -610 232 0
-250 -611 253 0
-250 -612 274 0
-250 -613 295 0
-250 -614 316 0
-250 -615 337 0
-250 -616 358 0
-250 -617 379 0
-250 -618 400 0
-250 -619 421 0
-250 -620 442 0
-250 -621 463 0
-250 -622 484 0
-250 -623 505 0
-250 -624 526 0
-250 -625 547 0
-250 -626 568 0
-250 -627 589 0
-250 -628 610 0
-250 -629 631 0
-250 -630 652 0
-251 -631 232 0
-251 -632 253 0
-251 -633 274 0
-251 -634 295 0
-251 -635 316 0
-251 -636 337 0
-251 -637 358 0
-251 -638 379 0
-251 -639 400 0
-251 -640 421 0
-251 -641 442 0
-251 -642 463 0
-251 -643 484 0
-251 -644 505 0
-251 -645 526 0
-251 -646 547 0
-251 -647 568 0
-251 -648 589 0
-251 -649 610 0
-251 -650 631 0
-251 -651 652 0
-252 -652 232 0
-252 -653 253 0
-252 -654 274 0
-252 -655 295 0
-252 -656 316 0
-252 -657 337 0
-252 -658 358 0
-252 -659 379 0
-252 -660 400 0
-252 -661 421 0
-252 -662 442 0
-252 -663 463 0
-252 -664 484 0
-252 -665 505 0
-252 -666 526 0
-252 -667 547 0
-252 -668 568 0
-252 -669 589 0
-252 -670 610 0
-252 -671 631 0
-252 -672 652 0
-253 -232 233 0
-253 -233 254 0
-253 -234 275 0
-253 -235 296 0
-253 -236 317 0
-253 -237 338 0
-253 -238 359 0
-253 -239 380 0
-253 -240 401 0
-253 -241 422 0
-253 -242 443 0
-253 -243 464 0
-253 -244 485 0
-253 -245 506 0
-253 -246 527 0
-253 -247 548 0
-253 -248 569 0
-253 -249 590 0
-253 -250 611 0
-253 -251 632 0
-253 -252 653 0
-254 -253 233 0
-254 -254 254 0
-254 -255 275 0
-254 -256 296 0
-254 -257 317 0
-254 -258 338 0
-254 -259 359 0
-254 -260 380 0
-254 -261 401 0
-254 -262 422 0
-254 -263 443 0
-254 -264 464 0
-254 -265 485 0
-254 -266 506 0
-254 -267 527 0
-254 -268 548 0
-254 -269 569 0
-254 -270 590 0
-254 -271 611 0
-254 -272 632 0
-254 -273 653 0
-255 -274 233 0
-255 -275 254 0
-255 -276 275 0
-255 -277 296 0
-255 -278 317 0
-255 -279 338 0
-255 -280 359 0
-255 -281 380 0
-255 -282 401 0
-255 -283 422 0
-255 -284 443 0
-255 -285 464 0
-255 -286 485 0
-255 -287 506 0
-255 -288 527 0
-255 -289 548 0
-255 -290 569 0
-255 -291 590 0
-255 -292 611 0
-255 -293 632 0
-255 -294 653 0
-256 -295 233 0
-256 -296 254 0
-256 -297 275 0
-256 -298 296 0
-256 -299 317 0
-256 -300 338 0
-256 -301 359 0
-256 -302 380 0
-256 -303 401 0
-256 -304 422 0
-256 -305 443 0
-256 -306 464 0
-256 -307 485 0
-256 -308 506 0
-256 -309 527 0
-256 -310 548 0
-256 -311 569 0
-256 -312 590 0
-256 -313 611 0
-256 -314 632 0
-256 -315 653 0
-257 -316 233 0
-257 -317 254 0
-257 -318 275 0
-257 -319 296 0
-257 -320 317 0
-257 -321 338 0
-257 -322 359 0
-257 -323 380 0
-257 -324 401 0
-257 -325 422 0
-257 -326 443 0
-257 -327 464 0
-257 -328 485 0
-257 -329 506 0
-257 -330 527 0
-257 -331 548 0
-257 -332 569 0
-257 -333 590 0
-257 -334 611 0
-257 -335 632 0
-257 -336 653 0
-258 -337 233 0
-258 -338 254 0
-258 -339 275 0
-258 -340 296 0
-258 -341 317 0
-258 -342 338 0
-258 -343 359 0
-258 -344 380 0
-258 -345 401 0
-258 -346 422 0
-258 -347 443 0
-258 -348 464 0
-258 -349 485 0
-258 -350 506 0
-258 -351 527 0
-258 -352 548 0
-258 -353 569 0
-258 -354 590 0
-258 -355 611 0
-258 -356 632 0
-258 -357 653 0
-259 -358 233 0
-259 -359 254 0
-259 -360 275 0
-259 -361 296 0
-259 -362 317 0
-259 -363 338 0
-259 -364 359 0
-259 -365 380 0
-259 -366 401 0
-259 -367 422 0
-259 -368 443 0
-259 -369 464 0
-259 -370 485 0
-259 -371 506 0
-259 -372 527 0
-259 -373 548 0
-259 -374 569 0
-259 -375 590 0
-259 -376 611 0
-259 -377 632 0
-259 -378 653 0
-260 -379 233 0
-260 -380 254 0
-260 -381 275 0
-260 -382 296 0
-260 -383 317 0
-260 -384 338 0
-260 -385 359 0
-260 -386 380 0
-260 -387 401 0
-260 -388 422 0
-260 -389 443 0
-260 -390 464 0
-260 -391 485 0
-260 -392 506 0
-260 -393 527 0
-260 -394 548 0
-260 -395 569 0
-260 -396 590 0
-260 -397 611 0
-260 -398 632 0
-260 -399 653 0
-261 -400 233 0
-261 -401 254 0
-261 -402 275 0
-261 -403 296 0
-261 -404 317 0
-261 -405 338 0
-261 -406 359 0
-261 -407 380 0
-261 -408 401 0
-261 -409 422 0
-261 -410 443 0
-261 -411 464 0
-261 -412 485 0
-261 -413 506 0
-261 -414 527 0
-261 -415 548 0
-261 -416 569 0
-261 -417 590 0
-261 -418 611 0
-261 -419 632 0
-261 -420 653 0
-262 -421 233 0
-262 -422 254 0
-262 -423 275 0
-262 -424 296 0
-262 -425 317 0
-262 -426 338 0
-262 -427 359 0
-262 -428 380 0
-262 -429 401 0
-262 -430 422 0
-262 -431 443 0
-262 -432 464 0
-262 -433 485 0
-262 -434 506 0
-262 -435 527 0
-262 -436 548 0
-262 -437 569 0
-262 -438 590 0
-262 -439 611 0
-262 -440 632 0
-262 -441 653 0
-263 -442 233 0
-263 -443 254 0
-263 -444 275 0
-263 -445 296 0
-263 -446 317 0
-263 -447 338 0
-263 -448 359 0
-263 -449 380 0
-263 -450 401 0
-263 -451 422 0
-263 -452 443 0
-263 -453 464 0
-263 -454 485 0
-263 -455 506 0
-263 -456 527 0
-263 -457 548 0
-263 -458 569 0
-263 -459 590 0
-263 -460 611 0
-263 -461 632 0
-263 -462 653 0
-264 -463 233 0
-264 -464 254 0
-264 -465 275 0
-264 -466 296 0
-264 -467 317 0
-264 -468 338 0
-264 -469 359 0
-264 -470 380 0
-264 -471 401 0
-264 -472 422 0
-264 -473 443 0
-264 -474 464 0
-264 -475 485 0
-264 -476 506 0
-264 -477 527 0
-264 -478 548 0
-264 -479 569 0
-264 -480 590 0
-264 -481 611 0
-264 -482 632 0
-264 -483 653 0
-265 -484 233 0
-265 -485 254 0
-265 -486 275 0
-265 -487 296 0
-265 -488 317 0
-265 -489 338 0
-265 -490 359 0
-265 -491 380 0
-265 -492 401 0
-265 -493 422 0
-265 -494 443 0
-265 -495 464 0
-265 -496 485 0
-265 -497 506 0
-265 -498 527 0
-265 -499 548 0
-265 -500 569 0
-265 -501 590 0
-265 -502 611 0
-265 -503 632 0
-265 -504 653 0
-266 -505 233 0
-266 -506 254 0
-266 -507 275 0
-266 -508 296 0
-266 -509 317 0
-266 -510 338 0
-266 -511 359 0
-266 -512 380 0
-266 -513 401 0
-266 -514 422 0
-266 -515 443 0
-266 -516 464 0
-266 -517 485 0
-266 -518 506 0
-266 -519 527 0
-266 -520 548 0
-266 -521 569 0
-266 -522 590 0
-266 -523 611 0
-266 -524 632 0
-266 -525 653 0
-267 -526 233 0
-267 -527 254 0
-267 -528 275 0
-267 -529 296 0
-267 -530 317 0
-267 -531 338 0
-267 -532 359 0
-267 -533 380 0
-267 -534 401 0
-267 -535 422 0
-267 -536 443 0
-267 -537 464 0
-267 -538 485 0
-267 -539 506 0
-267 -540 527 0
-267 -541 548 0
-267 -542 569 0
-267 -543 590 0
-267 -544 611 0
-267 -545 632 0
-267 -546 653 0
-268 -547 233 0
-268 -548 254 0
-268 -549 275 0
-268 -550 296 0
-268 -551 317 0
-268 -552 338 0
-268 -553 359 0
-268 -554 380 0
-268 -555 401 0
-268 -556 422 0
-268 -557 443 0
-268 -558 464 0
-268 -559 485 0
-268 -560 506 0
-268 -561 527 0
-268 -562 548 0
-268 -563 569 0
-268 -564 590 0
-268 -565 611 0
-268 -566 632 0
-268 -567 653 0
-269 -568 233 0
-269 -569 254 0
-269 -570 275 0
-269 -571 296 0
-269 -572 317 0
-269 -573 338 0
-269 -574 359 0
-269 -575 380 0
-269 -576 401 0
-269 -577 422 0
-269 -578 443 0
-269 -579 464 0
-269 -580 485 0
-269 -581 506 0
-269 -582 527 0
-269 -583 548 0
-269 -584 569 0
-269 -585 590 0
-269 -586 611 0
-269 -587 632 0
-269 -588 653 0
-270 -589 233 0
-270 -590 254 0
-270 -591 275 0
-270 -592 296 0
-270 -593 317 0
-270 -594 338 0
-270 -595 359 0
-270 -596 380 0
-270 -597 401 0
-270 -598 422 0
-270 -599 443 0
-270 -600 464 0
-270 -601 485 0
-270 -602 506 0
-270 -603 527 0
-270 -604 548 0
-270 -605 569 0
-270 -606 590 0
-270 -607 611 0
-270 -608 632 0
-270 -609 653 0
-271 -610 233 0
-271 -611 254 0
-271 -612 275 0
-271 -613 296 0
-271 -614 317 0
-271 -615 338 0
-271 -616 359 0
-271 -617 380 0
-271 -618 401 0
-271 -619 422 0
-271 -620 443 0
-271 -621 464 0
-271 -622 485 0
-271 -623 506 0
-271 -624 527 0
-271 -625 548 0
-271 -626 569 0
-271 -627 590 0
-271 -628 611 0
-271 -629 632 0
-271 -630 653 0
-272 -631 233 0
-272 -632 254 0
-272 -633 275 0
-272 -634 296 0
-272 -635 317 0
-272 -636 338 0
-272 -637 359 0
-272 -638 380 0
-272 -639 401 0
-272 -640 422 0
-272 -641 443 0
-272 -642 464 0
-272 -643 485 0
-272 -644 506 0
-272 -645 527 0
-272 -646 548 0
-272 -647 569 0
-272 -648 590 0
-272 -649 611 0
-272 -650 632 0
-272 -651 653 0
-273 -652 233 0
-273 -653 254 0
-273 -654 275 0
-273 -655 296 0
-273 -656 317 0
-273 -657 338 0
-273 -658 359 0
-273 -659 380 0
-273 -660 401 0
-273 -661 422 0
-273 -662 443 0
-273 -663 464 0
-273 -664 485 0
-273 -665 506 0
-273 -666 527 0
-273 -667 548 0
-273 -668 569 0
-273 -669 590 0
-273 -670 611 0
-273 -671 632 0
-273 -672 653 0
-274 -232 234 0
-274 -233 255 0
-274 -234 276 0
-274 -235 297 0
-274 -236 318 0
-274 -237 339 0
-274 -238 360 0
-274 -239 381 0
-274 -240 402 0
-274 -241 423 0
-274 -242 444 0
-274 -243 465 0
-274 -244 486 0
-274 -245 507 0
-274 -246 528 0
-274 -247 549 0
-274 -248 570 0
-274 -249 591 0
-274 -250 612 0
-274 -251 633 0
-274 -252 654 0
-275 -253 234 0
-275 -254 255 0
-275 -255 276 0
-275 -256 297 0
-275 -257 318 0
-275 -258 339 0
-275 -259 360 0
-275 -260 381 0
-275 -261 402 0
-275 -262 423 0
-275 -263 444 0
-275 -264 465 0
-275 -265 486 0
-275 -266 507 0
-275 -267 528 0
-275 -268 549 0
-275 -269 570 0
-275 -270 591 0
-275 -271 612 0
-275 -272 633 0
-275 -273 654 0
-276 -274 234 0
-276 -275 255 0
-276 -276 276 0
-276 -277 297 0
-276 -278 318 0
-276 -279 339 0
-276 -280 360 0
-276 -281 381 0
-276 -282 402 0
-276 -283 423 0
-276 -284 444 0
-276 -285 465 0
-276 -286 486 0
-276 -287 507 0
-276 -288 528 0
-276 -289 549 0
-276 -290 570 0
-276 -291 591 0
-276 -292 612 0
-276 -293 633 0
-276 -294 654 0
-277 -295 234 0
-277 -296 255 0
-277 -297 276 0
-277 -298 297 0
-277 -299 318 0
-277 -300 339 0
-277 -301 360 0
-277 -302 381 0
-277 -303 402 0
-277 -304 423 0
-277 -305 444 0
-277 -306 465 0
-277 -307 486 0
-277 -308 507 0
-277 -309 528 0
-277 -310 549 0
-277 -311 570 0
-277 -312 591 0
-277 -313 612 0
-277 -314 633 0
-277 -315 654 0
-278 -316 234 0
-278 -317 255 0
-278 -318 276 0
-278 -319 297 0
-278 -320 318 0
-278 -321 339 0
-278 -322 360 0
-278 -323 381 0
-278 -324 402 0
-278 -325 423 0
-278 -326 444 0
-278 -327 465 0
-278 -328 486 0
-278 -329 507 0
-278 -330 528 0
-278 -331 549 0
-278 -332 570 0
-278 -333 591 0
-278 -334 612 0
-278 -335 633 0
-278 -336 654 0
-279 -337 234 0
-279 -338 255 0
-279 -339 276 0
-279 -340 297 0
-279 -341 318 0
-279 -342 339 0
-279 -343 360 0
-279 -344 381 0
-279 -345 402 0
-279 -346 423 0
-279 -347 444 0
-279 -348 465 0
-279 -349 486 0
-279 -350 507 0
-279 -351 528 0
-279 -352 549 0
-279 -353 570 0
-279 -354 591 0
-279 -355 612 0
-279 -356 633 0
-279 -357 654 0
-280 -358 234 0
-280 -359 255 0
-280 -360 276 0
-280 -361 297 0
-280 -362 318 0
-280 -363 339 0
-280 -364 360 0
-280 -365 381 0
-280 -366 402 0
-280 -367 423 0
-280 -368 444 0
-280 -369 465 0
-280 -370 486 0
-280 -371 507 0
-280 -372 528 0
-280 -373 549 0
-280 -374 570 0
-280 -375 591 0
-280 -376 612 0
-280 -377 633 0
-280 -378 654 0
-281 -379 234 0
-281 -380 255 0
-281 -381 276 0
-281 -382 297 0
-281 -383 318 0
-281 -384 339 0
-281 -385 360 0
-281 -386 381 0
-281 -387 402 0
-281 -388 423 0
-281 -389 444 0
-281 -390 465 0
-281 -391 486 0
-281 -392 507 0
-281 -393 528 0
-281 -394 549 0
-281 -395 570 0
-281 -396 591 0
-281 -397 612 0
-281 -398 633 0
-281 -399 654 0
-282 -400 234 0
-282 -401 255 0
-282 -402 276 0
-282 -403 297 0
-282 -404 318 0
-282 -405 339 0
-282 -406 360 0
-282 -407 381 0
-282 -408 402 0
-282 -409 423 0
-282 -410 444 0
-282 -411 465 0
-282 -412 486 0
-282 -413 507 0
-282 -414 528 0
-282 -415 549 0
-282 -416 570 0
-282 -417 591 0
-282 -418 612 0
-282 -419 633 0
-282 -420 654 0
-283 -421 234 0
-283 -422 255 0
-283 -423 276 0
-283 -424 297 0
-283 -425 318 0
-283 -426 339 0
-283 -427 360 0
-283 -428 381 0
-283 -429 402 0
-283 -430 423 0
-283 -431 444 0
-283 -432 465 0
-283 -433 486 0
-283 -434 507 0
-283 -435 528 0
-283 -436 549 0
-283 -437 570 0
-283 -438 591 0
-283 -439 612 0
-283 -440 633 0
-283 -441 654 0
-284 -442 234 0
-284 -443 255 0
-284 -444 276 0
-284 -445 297 0
-284 -446 318 0
-284 -447 339 0
-284 -448 360 0
-284 -449 381 0
-284 -450 402 0
-284 -451 423 0
-284 -452 444 0
-284 -453 465 0
-284 -454 486 0
-284 -455 507 0
-284 -456 528 0
-284 -457 549 0
-284 -458 570 0
-284 -459 591 0
-284 -460 612 0
-284 -461 633 0
-284 -462 654 0
-285 -463 234 0
-285 -464 255 0
-285 -465 276 0
-285 -466 297 0
-285 -467 318 0
-285 -468 339 0
-285 -469 360 0
-285 -470 381 0
-285 -471 402 0
-285 -472 423 0
-285 -473 444 0
-285 -474 465 0
-285 -475 486 0
-285 -476 507 0
-285 -477 528 0
-285 -478 549 0
-285 -479 570 0
-285 -480 591 0
-285 -481 612 0
-285 -482 633 0
-285 -483 654 0
-286 -484 234 0
-286 -485 255 0
-286 -486 276 0
-286 -487 297 0
-286 -488 318 0
-286 -489 339 0
-286 -490 360 0
-286 -491 381 0
-286 -492 402 0
-286 -493 423 0
-286 -494 444 0
-286 -495 465 0
-286 -496 486 0
-286 -497 507 0
-286 -498 528 0
-286 -499 549 0
-286 -500 570 0
-286 -501 591 0
-286 -502 612 0
-286 -503 633 0
-286 -504 654 0
-287 -505 234 0
-287 -506 255 0
-287 -507 276 0
-287 -508 297 0
-287 -509 318 0
-287 -510 339 0
-287 -511 360 0
-287 -512 381 0
-287 -513 402 0
-287 -514 423 0
-287 -515 444 0
-287 -516 465 0
-287 -517 486 0
-287 -518 507 0
-287 -519 528 0
-287 -520 549 0
-287 -521 570 0
-287 -522 591 0
-287 -523 612 0
-287 -524 633 0
-287 -525 654 0
-288 -526 234 0
-288 -527 255 0
-288 -528 276 0
-288 -529 297 0
-288 -530 318 0
-288 -531 339 0
-288 -532 360 0
-288 -533 381 0
-288 -534 402 0
-288 -535 423 0
-288 -536 444 0
-288 -537 465 0
-288 -538 486 0
-288 -539 507 0
-288 -540 528 0
-288 -541 549 0
-288 -542 570 0
-288 -543 591 0
-288 -544 612 0
-288 -545 633 0
-288 -546 654 0
-289 -547 234 0
-289 -548 255 0
-289 -549 276 0
-289 -550 297 0
-289 -551 318 0
-289 -552 339 0
-289 -553 360 0
-289 -554 381 0
-289 -555 402 0
-289 -556 423 0
-289 -557 444 0
-289 -558 465 0
-289 -559 486 0
-289 -560 507 0
-289 -561 528 0
-289 -562 549 0
-289 -563 570 0
-289 -564 591 0
-289 -565 612 0
-289 -566 633 0
-289 -567 654 0
-290 -568 234 0
-290 -569 255 0
-290 -570 276 0
-290 -571 297 0
-290 -572 318 0
-290 -573 339 0
-290 -574 360 0
-290 -575 381 0
-290 -576 402 0
-290 -577 423 0
-290 -578 444 0
-290 -579 465 0
-290 -580 486 0
-290 -581 507 0
-290 -582 528 0
-290 -583 549 0
-290 -584 570 0
-290 -585 591 0
-290 -586 612 0
-290 -587 633 0
-290 -588 654 0
-291 -589 234 0
-291 -590 255 0
-291 -591 276 0
-291 -592 297 0
-291 -593 318 0
-291 -594 339 0
-291 -595 360 0
-291 -596 381 0
-291 -597 402 0
-291 -598 423 0
-291 -599 444 0
-291 -600 465 0
-291 -601 486 0
-291 -602 507 0
-291 -603 528 0
-291 -604 549 0
-291 -605 570 0
-291 -606 591 0
-291 -607 612 0
-291 -608 633 0
-291 -609 654 0
-292 -610 234 0
-292 -611 255 0
-292 -612 276 0
-292 -613 297 0
-292 -614 318 0
-292 -615 339 0
-292 -616 360 0
-292 -617 381 0
-292 -618 402 0
-292 -619 423 0
-292 -620 444 0
-292 -621 465 0
-292 -622 486 0
-292 -623 507 0
-292 -624 528 0
-292 -625 549 0
-292 -626 570 0
-292 -627 591 0
-292 -628 612 0
-292 -629 633 0
-292 -630 654 0
-293 -631 234 0
-293 -632 255 0
-293 -633 276 0
-293 -634 297 0
-293 -635 318 0
-293 -636 339 0
-293 -637 360 0
-293 -638 381 0
-293 -639 402 0
-293 -640 423 0
-293 -641 444 0
-293 -642 465 0
-293 -643 486 0
-293 -644 507 0
-293 -645 528 0
-293 -646 549 0
-293 -647 570 0
-293 -648 591 0
-293 -649 612 0
-293 -650 633 0
-293 -651 654 0
-294 -652 234 0
-294 -653 255 0
-294 -654 276 0
-294 -655 297 0
-294 -656 318 0
-294 -657 339 0
-294 -658 360 0
-294 -659 381 0
-294 -660 402 0
-294 -661 423 0
-294 -662 444 0
-294 -663 465 0
-294 -664 486 0
-294 -665 507 0
-294 -666 528 0
-294 -667 549 0
-294 -668 570 0
-294 -669 591 0
-294 -670 612 0
-294 -671 633 0
-294 -672 654 0
-295 -232 235 0
-295 -233 256 0
-295 -234 277 0
-295 -235 298 0
-295 -236 319 0
-295 -237 340 0
-295 -238 361 0
-295 -239 382 0
-295 -240 403 0
-295 -241 424 0
-295 -242 445 0
-295 -243 466 0
-295 -244 487 0
-295 -245 508 0
-295 -246 529 0
-295 -247 550 0
-295 -248 571 0
-295 -249 592 0
-295 -250 613 0
-295 -251 634 0
-295 -252 655 0
-296 -253 235 0
-296 -254 256 0
-296 -255 277 0
-296 -256 298 0
-296 -257 319 0
-296 -258 340 0
-296 -259 361 0
-296 -260 382 0
-296 -261 403 0
-296 -262 424 0
-296 -263 445 0
-296 -264 466 0
-296 -265 487 0
-296 -266 508 0
-296 -267 529 0
-296 -268 550 0
-296 -269 571 0
-296 -270 592 0
-296 -271 613 0
-296 -272 634 0
-296 -273 655 0
-297 -274 235 0
-297 -275 256 0
-297 -276 277 0
-297 -277 298 0
-297 -278 319 0
-297 -279 340 0
-297 -280 361 0
-297 -281 382 0
-297 -282 403 0
-297 -283 424 0
-297 -284 445 0
-297 -285 466 0
-297 -286 487 0
-297 -287 508 0
-297 -288 529 0
-297 -289 550 0
-297 -290 571 0
-297 -291 592 0
-297 -292 613 0
-297 -293 634 0
-297 -294 655 0
-298 -295 235 0
-298 -296 256 0
-298 -297 277 0
-298 -298 298 0
-298 -299 319 0
-298 -300 340 0
-298 -301 361 0
-298 -302 382 0
-298 -303 403 0
-298 -304 424 0
-298 -305 445 0
-298 -306 466 0
-298 -307 487 0
-298 -308 508 0
-298 -309 529 0
-298 -310 550 0
-298 -311 571 0
-298 -312 592 0
-298 -313 613 0
-298 -314 634 0
-298 -315 655 0
-299 -316 235 0
-299 -317 256 0
-299 -318 277 0
-299 -319 298 0
-299 -320 319 0
-299 -321 340 0
-299 -322 361 0
-299 -323 382 0
-299 -324 403 0
-299 -325 424 0
-299 -326 445 0
-299 -327 466 0
-299 -328 487 0
-299 -329 508 0
-299 -330 529 0
-299 -331 550 0
-299 -332 571 0
-299 -333 592 0
-299 -334 613 0
-299 -335 634 0
-299 -336 655 0
-300 -337 235 0
-300 -338 256 0
-300 -339 277 0
-300 -340 298 0
-300 -341 319 0
-300 -342 340 0
-300 -343 361 0
-300 -344 382 0
-300 -345 403 0
-300 -346 424 0
-300 -347 445 0
-300 -348 466 0
-300 -349 487 0
-300 -350 508 0
-300 -351 529 0
-300 -352 550 0
-300 -353 571 0
-300 -354 592 0
-300 -355 613 0
-300 -356 634 0
-300 -357 655 0
-301 -358 235 0
-301 -359 256 0
-301 -360 277 0
-301 -361 298 0
-301 -362 319 0
-301 -363 340 0
-301 -364 361 0
-301 -365 382 0
-301 -366 403 0
-301 -367 424 0
-301 -368 445 0
-301 -369 466 0
-301 -370 487 0
-301 -371 508 0
-301 -372 529 0
-301 -373 550 0
-301 -374 571 0
-301 -375 592 0
-301 -376 613 0
-301 -377 634 0
-301 -378 655 0
-302 -379 235 0
-302 -380 256 0
-302 -381 277 0
-302 -382 298 0
-302 -383 319 0
-302 -384 340 0
-302 -385 361 0
-302 -386 382 0
-302 -387 403 0
-302 -388 424 0
-302 -389 445 0
-302 -390 466 0
-302 -391 487 0
-302 -392 508 0
-302 -393 529 0
-302 -394 550 0
-302 -395 571 0
-302 -396 592 0
-302 -397 613 0
-302 -398 634 0
-302 -399 655 0
-303 -400 235 0
-303 -401 256 0
-303 -402 277 0
-303 -403 298 0
-303 -404 319 0
-303 -405 340 0
-303 -406 361 0
-303 -407 382 0
-303 -408 403 0
-303 -409 424 0
-303 -410 445 0
-303 -411 466 0
-303 -412 487 0
-303 -413 508 0
-303 -414 529 0
-303 -415 550 0
-303 -416 571 0
-303 -417 592 0
-303 -418 613 0
-303 -419 634 0
-303 -420 655 0
-304 -421 235 0
-304 -422 256 0
-304 -423 277 0
-304 -424 298 0
-304 -425 319 0
-304 -426 340 0
-304 -427 361 0
-304 -428 382 0
-304 -429 403 0
-304 -430 424 0
-304 -431 445 0
-304 -432 466 0
-304 -433 487 0
-304 -434 508 0
-304 -435 529 0
-304 -436 550 0
-304 -437 571 0
-304 -438 592 0
-304 -439 613 0
-304 -440 634 0
-304 -441 655 0
-305 -442 235 0
-305 -443 256 0
-305 -444 277 0
-305 -445 298 0
-305 -446 319 0
-305 -447 340 0
-305 -448 361 0
-305 -449 382 0
-305 -450 403 0
-305 -451 424 0
-305 -452 445 0
-305 -453 466 0
-305 -454 487 0
-305 -455 508 0
-305 -456 529 0
-305 -457 550 0
-305 -458 571 0
-305 -459 592 0
-305 -460 613 0
-305 -461 634 0
-305 -462 655 0
-306 -463 235 0
-306 -464 256 0
-306 -465 277 0
-306 -466 298 0
-306 -467 319 0
-306 -468 340 0
-306 -469 361 0
-306 -470 382 0
-306 -471 403 0
-306 -472 424 0
-306 -473 445 0
-306 -474 466 0
-306 -475 487 0
-306 -476 508 0
-306 -477 529 0
-306 -478 550 0
-306 -479 571 0
-306 -480 592 0
-306 -481 613 0
-306 -482 634 0
-306 -483 655 0
-307 -484 235 0
-307 -485 256 0
-307 -486 277 0
-307 -487 298 0
-307 -488 319 0
-307 -489 340 0
-307 -490 361 0
-307 -491 382 0
-307 -492 403 0
-307 -493 424 0
-307 -494 445 0
-307 -495 466 0
-307 -496 487 0
-307 -497 508 0
-307 -498 529 0
-307 -499 550 0
-307 -500 571 0
-307 -501 592 0
-307 -502 613 0
-307 -503 634 0
-307 -504 655 0
-308 -505 235 0
-308 -506 256 0
-308 -507 277 0
-308 -508 298 0
-308 -509 319 0
-308 -510 340 0
-308 -511 361 0
-308 -512 382 0
-308 -513 403 0
-308 -514 424 0
-308 -515 445 0
-308 -516 466 0
-308 -517 487 0
-308 -518 508 0
-308 -519 529 0
-308 -520 550 0
-308 -521 571 0
-308 -522 592 0
-308 -523 613 0
-308 -524 634 0
-308 -525 655 0
-309 -526 235 0
-309 -527 256 0
-309 -528 277 0
-309 -529 298 0
-309 -530 319 0
-309 -531 340 0
-309 -532 361 0
-309 -533 382 0
-309 -534 403 0
-309 -535 424 0
-309 -536 445 0
-309 -537 466 0
-309 -538 487 0
-309 -539 508 0
-309 -540 529 0
-309 -541 550 0
-309 -542 571 0
-309 -543 592 0
-309 -544 613 0
-309 -545 634 0
-309 -546 655 0
-310 -547 235 0
-310 -548 256 0
-310 -549 277 0
-310 -550 298 0
-310 -551 319 0
-310 -552 340 0
-310 -553 361 0
-310 -554 382 0
-310 -555 403 0
-310 -556 424 0
-310 -557 445 0
-310 -558 466 0
-310 -559 487 0
-310 -560 508 0
-310 -561 529 0
-310 -562 550 0
-310 -563 571 0
-310 -564 592 0
-310 -565 613 0
-310 -566 634 0
-310 -567 655 0
-311 -568 235 0
-311 -569 256 0
-311 -570 277 0
-311 -571 298 0
-311 -572 319 0
-311 -573 340 0
-311 -574 361 0
-311 -575 382 0
-311 -576 403 0
-311 -577 424 0
-311 -578 445 0
-311 -579 466 0
-311 -580 487 0
-311 -581 508 0
-311 -582 529 0
-311 -583 550 0
-311 -584 571 0
-311 -585 592 0
-311 -586 613 0
-311 -587 634 0
-311 -588 655 0
-312 -589 235 0
-312 -590 256 0
-312 -591 277 0
-312 -592 298 0
-312 -593 319 0
-312 -594 340 0
-312 -595 361 0
-312 -596 382 0
-312 -597 403 0
-312 -598 424 0
-312 -599 445 0
-312 -600 466 0
-312 -601 487 0
-312 -602 508 0
-312 -603 529 0
-312 -604 550 0
-312 -605 571 0
-312 -606 592 0
-312 -607 613 0
-312 -608 634 0
-312 -609 655 0
-313 -610 235 0
-313 -611 256 0
-313 -612 277 0
-313 -613 298 0
-313 -614 319 0
-313 -615 340 0
-313 -616 361 0
-313 -617 382 0
-313 -618 403 0
-313 -619 424 0
-313 -620 445 0
-313 -621 466 0
-313 -622 487 0
-313 -623 508 0
-313 -624 529 0
-313 -625 550 0
-313 -626 571 0
-313 -627 592 0
-313 -628 613 0
-313 -629 634 0
-313 -630 655 0
-314 -631 235 0
-314 -632 256 0
-314 -633 277 0
-314 -634 298 0
-314 -635 319 0
-314 -636 340 0
-314 -637 361 0
-314 -638 382 0
-314 -639 403 0
-314 -640 424 0
-314 -641 445 0
-314 -642 466 0
-314 -643 487 0
-314 -644 508 0
-314 -645 529 0
-314 -646 550 0
-314 -647 571 0
-314 -648 592 0
-314 -649 613 0
-314 -650 634 0
-314 -651 655 0
-315 -652 235 0
-315 -653 256 0
-315 -654 277 0
-315 -655 298 0
-315 -656 319 0
-315 -657 340 0
-315 -658 361 0
-315 -659 382 0
-315 -660 403 0
-315 -661 424 0
-315 -662 445 0
-315 -663 466 0
-315 -664 487 0
-315 -665 508 0
-315 -666 529 0
-315 -667 550 0
-315 -668 571 0
-315 -669 592 0
-315 -670 613 0
-315 -671 634 0
-315 -672 655 0
-316 -232 236 0
-316 -233 257 0
-316 -234 278 0
-316 -235 299 0
-316 -236 320 0
-316 -237 341 0
-316 -238 362 0
-316 -239 383 0
-316 -240 404 0
-316 -241 425 0
-316 -242 446 0
-316 -243 467 0
-316 -244 488 0
-316 -245 509 0
-316 -246 530 0
-316 -247 551 0
-316 -248 572 0
-316 -249 593 0
-316 -250 614 0
-316 -251 635 0
-316 -252 656 0
-317 -253 236 0
-317 -254 257 0
-317 -255 278 0
-317 -256 299 0
-317 -257 320 0
-317 -258 341 0
-317 -259 362 0
-317 -260 383 0
-317 -261 404 0
-317 -262 425 0
-317 -263 446 0
-317 -264 467 0
-317 -265 488 0
-317 -266 509 0
-317 -267 530 0
-317 -268 551 0
-317 -269 572 0
-317 -270 593 0
-317 -271 614 0
-317 -272 635 0
-317 -273 656 0
-318 -274 236 0
-318 -275 257 0
-318 -276 278 0
-318 -277 299 0
-318 -278 320 0
-318 -279 341 0
-318 -280 362 0
-318 -281 383 0
-318 -282 404 0
-318 -283 425 0
-318 -284 446 0
-318 -285 467 0
-318 -286 488 0
-318 -287 509 0
-318 -288 530 0
-318 -289 551 0
-318 -290 572 0
-318 -291 593 0
-318 -292 614 0
-318 -293 635 0
-318 -294 656 0
-319 -295 236 0
-319 -296 257 0
-319 -297 278 0
-319 -298 299 0
-319 -299 320 0
-319 -300 341 0
-319 -301 362 0
-319 -302 383 0
-319 -303 404 0
-319 -304 425 0
-319 -305 446 0
-319 -306 467 0
-319 -307 488 0
-319 -308 509 0
-319 -309 530 0
-319 -310 551 0
-319 -311 572 0
-319 -312 593 0
-319 -313 614 0
-319 -314 635 0
-319 -315 656 0
-320 -316 236 0
-320 -317 257 0
-320 -318 278 0
-320 -319 299 0
-320 -320 320 0
-320 -321 341 0
-320 -322 362 0
-320 -323 383 0
-320 -324 404 0
-320 -325 425 0
-320 -326 446 0
-320 -327 467 0
-320 -328 488 0
-320 -329 509 0
-320 -330 530 0
-320 -331 551 0
-320 -332 572 0
-320 -333 593 0
-320 -334 614 0
-320 -335 635 0
-320 -336 656 0
-321 -337 236 0
-321 -338 257 0
-321 -339 278 0
-321 -340 299 0
-321 -341 320 0
-321 -342 341 0
-321 -343 362 0
-321 -344 383 0
-321 -345 404 0
-321 -346 425 0
-321 -347 446 0
-321 -348 467 0
-321 -349 488 0
-321 -350 509 0
-321 -351 530 0
-321 -352 551 0
-321 -353 572 0
-321 -354 593 0
-321 -355 614 0
-321 -356 635 0
-321 -357 656 0
-322 -358 236 0
-322 -359 257 0
-322 -360 278 0
-322 -361 299 0
-322 -362 320 0
-322 -363 341 0
-322 -364 362 0
-322 -365 383 0
-322 -366 404 0
-322 -367 425 0
-322 -368 446 0
-322 -369 467 0
-322 -370 488 0
-322 -371 509 0
-322 -372 530 0
-322 -373 551 0
-322 -374 572 0
-322 -375 593 0
-322 -376 614 0
-322 -377 635 0
-322 -378 656 0
-323 -379 236 0
-323 -380 257 0
-323 -381 278 0
-323 -382 299 0
-323 -383 320 0
-323 -384 341 0
-323 -385 362 0
-323 -386 383 0
-323 -387 404 0
-323 -388 425 0
-323 -389 446 0
-323 -390 467 0
-323 -391 488 0
-323 -392 509 0
-323 -393 530 0
-323 -394 551 0
-323 -395 572 0
-323 -396 593 0
-323 -397 614 0
-323 -398 635 0
-323 -399 656 0
-324 -400 236 0
-324 -401 257 0
-324 -402 278 0
-324 -403 299 0
-324 -404 320 0
-324 -405 341 0
-324 -406 362 0
-324 -407 383 0
-324 -408 404 0
-324 -409 425 0
-324 -410 446 0
-324 -411 467 0
-324 -412 488 0
-324 -413 509 0
-324 -414 530 0
-324 -415 551 0
-324 -416 572 0
-324 -417 593 0
-324 -418 614 0
-324 -419 635 0
-324 -420 656 0
-325 -421 236 0
-325 -422 257 0
-325 -423 278 0
-325 -424 299 0
-325 -425 320 0
-325 -426 341 0
-325 -427 362 0
-325 -428 383 0
-325 -429 404 0
-325 -430 425 0
-325 -431 446 0
-325 -432 467 0
-325 -433 488 0
-325 -434 509 0
-325 -435 530 0
-325 -436 551 0
-325 -437 572 0
-325 -438 593 0
-325 -439 614 0
-325 -440 635 0
-325 -441 656 0
-326 -442 236 0
-326 -443 257 0
-326 -444 278 0
-326 -445 299 0
-326 -446 320 0
-326 -447 341 0
-326 -448 362 0
-326 -449 383 0
-326 -450 404 0
-326 -451 425 0
-326 -452 446 0
-326 -453 467 0
-326 -454 488 0
-326 -455 509 0
-326 -456 530 0
-326 -457 551 0
-326 -458 572 0
-326 -459 593 0
-326 -460 614 0
-326 -461 635 0
-326 -462 656 0
-327 -463 236 0
-327 -464 257 0
-327 -465 278 0
-327 -466 299 0
-327 -467 320 0
-327 -468 341 0
-327 -469 362 0
-327 -470 383 0
-327 -471 404 0
-327 -472 425 0
-327 -473 446 0
-327 -474 467 0
-327 -475 488 0
-327 -476 509 0
-327 -477 530 0
-327 -478 551 0
-327 -479 572 0
-327 -480 593 0
-327 -481 614 0
-327 -482 635 0
-327 -483 656 0
-328 -484 236 0
-328 -485 257 0
-328 -486 278 0
-328 -487 299 0
-328 -488 320 0
-328 -489 341 0
-328 -490 362 0
-328 -491 383 0
-328 -492 404 0
-328 -493 425 0
-328 -494 446 0
-328 -495 467 0
-328 -496 488 0
-328 -497 509 0
-328 -498 530 0
-328 -499 551 0
-328 -500 572 0
-328 -501 593 0
-328 -502 614 0
-328 -503 635 0
-328 -504 656 0
-329 -505 236 0
-329 -506 257 0
-329 -507 278 0
-329 -508 299 0
-329 -509 320 0
-329 -510 341 0
-329 -511 362 0
-329 -512 383 0
-329 -513 404 0
-329 -514 425 0
-329 -515 446 0
-329 -516 467 0
-329 -517 488 0
-329 -518 509 0
-329 -519 530 0
-329 -520 551 0
-329 -521 572 0
-329 -522 593 0
-329 -523 614 0
-329 -524 635 0
-329 -525 656 0
-330 -526 236 0
-330 -527 257 0
-330 -528 278 0
-330 -529 299 0
-330 -530 320 0
-330 -531 341 0
-330 -532 362 0
-330 -533 383 0
-330 -534 404 0
-330 -535 425 0
-330 -536 446 0
-330 -537 467 0
-330 -538 488 0
-330 -539 509 0
-330 -540 530 0
-330 -541 551 0
-330 -542 572 0
-330 -543 593 0
-330 -544 614 0
-330 -545 635 0
-330 -546 656 0
-331 -547 236 0
-331 -548 257 0
-331 -549 278 0
-331 -550 299 0
-331 -551 320 0
-331 -552 341 0
-331 -553 362 0
-331 -554 383 0
-331 -555 404 0
-331 -556 425 0
-331 -557 446 0
-331 -558 467 0
-331 -559 488 0
-331 -560 509 0
-331 -561 530 0
-331 -562 551 0
-331 -563 572 0
-331 -564 593 0
-331 -565 614 0
-331 -566 635 0
-331 -567 656 0
-332 -568 236 0
-332 -569 257 0
-332 -570 278 0
-332 -571 299 0
-332 -572 320 0
-332 -573 341 0
-332 -574 362 0
-332 -575 383 0
-332 -576 404 0
-332 -577 425 0
-332 -578 446 0
-332 -579 467 0
-332 -580 488 0
-332 -581 509 0
-332 -582 530 0
-332 -583 551 0
-332 -584 572 0
-332 -585 593 0
-332 -586 614 0
-332 -587 635 0
-332 -588 656 0
-333 -589 236 0
-333 -590 257 0
-333 -591 278 0
-333 -592 299 0
-333 -593 320 0
-333 -594 341 0
-333 -595 362 0
-333 -596 383 0
-333 -597 404 0
-333 -598 425 0
-333 -599 446 0
-333 -600 467 0
-333 -601 488 0
-333 -602 509 0
-333 -603 530 0
-333 -604 551 0
-333 -605 572 0
-333 -606 593 0
-333 -607 614 0
-333 -608 635 0
-333 -609 656 0
-334 -610 236 0
-334 -611 257 0
-334 -612 278 0
-334 -613 299 0
-334 -614 320 0
-334 -615 341 0
-334 -616 362 0
-334 -617 383 0
-334 -618 404 0
-334 -619 425 0
-334 -620 446 0
-334 -621 467 0
-334 -622 488 0
-334 -623 509 0
-334 -624 530 0
-334 -625 551 0
-334 -626 572 0
-334 -627 593 0
-334 -628 614 0
-334 -629 635 0
-334 -630 656 0
-335 -631 236 0
-335 -632 257 0
-335 -633 278 0
-335 -634 299 0
-335 -635 320 0
-335 -636 341 0
-335 -637 362 0
-335 -638 383 0
-335 -639 404 0
-335 -640 425 0
-335 -641 446 0
-335 -642 467 0
-335 -643 488 0
-335 -644 509 0
-335 -645 530 0
-335 -646 551 0
-335 -647 572 0
-335 -648 593 0
-335 -649 614 0
-335 -650 635 0
-335 -651 656 0
-336 -652 236 0
-336 -653 257 0
-336 -654 278 0
-336 -655 299 0
-336 -656 320 0
-336 -657 341 0
-336 -658 362 0
-336 -659 383 0
-336 -660 404 0
-336 -661 425 0
-336 -662 446 0
-336 -663 467 0
-336 -664 488 0
-336 -665 509 0
-336 -666 530 0
-336 -667 551 0
-336 -668 572 0
-336 -669 593 0
-336 -670 614 0
-336 -671 635 0
-336 -672 656 0
-337 -232 237 0
-337 -233 258 0
-337 -234 279 0
-337 -235 300 0
-337 -236 321 0
-337 -237 342 0
-337 -238 363 0
-337 -239 384 0
-337 -240 405 0
-337 -241 426 0
-337 -242 447 0
-337 -243 468 0
-337 -244 489 0
-337 -245 510 0
-337 -246 531 0
-337 -247 552 0
-337 -248 573 0
-337 -249 594 0
-337 -250 615 0
-337 -251 636 0
-337 -252 657 0
-338 -253 237 0
-338 -254 258 0
-338 -255 279 0
-338 -256 300 0
-338 -257 321 0
-338 -258 342 0
-338 -259 363 0
-338 -260 384 0
-338 -261 405 0
-338 -262 426 0
-338 -263 447 0
-338 -264 468 0
-338 -265 489 0
-338 -266 510 0
-338 -267 531 0
-338 -268 552 0
-338 -269 573 0
-338 -270 594 0
-338 -271 615 0
-338 -272 636 0
-338 -273 657 0
-339 -274 237 0
-339 -275 258 0
-339 -276 279 0
-339 -277 300 0
-339 -278 321 0
-339 -279 342 0
-339 -280 363 0
-339 -281 384 0
-339 -282 405 0
-339 -283 426 0
-339 -284 447 0
-339 -285 468 0
-339 -286 489 0
-339 -287 510 0
-339 -288 531 0
-339 -289 552 0
-339 -290 573 0
-339 -291 594 0
-339 -292 615 0
-339 -293 636 0
-339 -294 657 0
-340 -295 237 0
-340 -296 258 0
-340 -297 279 0
-340 -298 300 0
-340 -299 321 0
-340 -300 342 0
-340 -301 363 0
-340 -302 384 0
-340 -303 405 0
-340 -304 426 0
-340 -305 447 0
-340 -306 468 0
-340 -307 489 0
-340 -308 510 0
-340 -309 531 0
-340 -310 552 0
-340 -311 573 0
-340 -312 594 0
-340 -313 615 0
-340 -314 636 0
-340 -315 657 0
-341 -316 237 0
-341 -317 258 0
-341 -318 279 0
-341 -319 300 0
-341 -320 321 0
-341 -321 342 0
-341 -322 363 0
-341 -323 384 0
-341 -324 405 0
-341 -325 426 0
-341 -326 447 0
-341 -327 468 0
-341 -328 489 0
-341 -329 510 0
-341 -330 531 0
-341 -331 552 0
-341 -332 573 0
-341 -333 594 0
-341 -334 615 0
-341 -335 636 0
-341 -336 657 0
-342 -337 237 0
-342 -338 258 0
-342 -339 279 0
-342 -340 300 0
-342 -341 321 0
-342 -342 342 0
-342 -343 363 0
-342 -344 384 0
-342 -345 405 0
-342 -346 426 0
-342 -347 447 0
-342 -348 468 0
-342 -349 489 0
-342 -350 510 0
-342 -351 531 0
-342 -352 552 0
-342 -353 573 0
-342 -354 594 0
-342 -355 615 0
-342 -356 636 0
-342 -357 657 0
-343 -358 237 0
-343 -359 258 0
-343 -360 279 0
-343 -361 300 0
-343 -362 321 0
-343 -363 342 0
-343 -364 363 0
-343 -365 384 0
-343 -366 405 0
-343 -367 426 0
-343 -368 447 0
-343 -369 468 0
-343 -370 489 0
-343 -371 510 0
-343 -372 531 0
-343 -373 552 0
-343 -374 573 0
-343 -375 594 0
-343 -376 615 0
-343 -377 636 0
-343 -378 657 0
-344 -379 237 0
-344 -380 258 0
-344 -381 279 0
-344 -382 300 0
-344 -383 321 0
-344 -384 342 0
-344 -385 363 0
-344 -386 384 0
-344 -387 405 0
-344 -388 426 0
-344 -389 447 0
-344 -390 468 0
-344 -391 489 0
-344 -392 510 0
-344 -393 531 0
-344 -394 552 0
-344 -395 573 0
-344 -396 594 0
-344 -397 615 0
-344 -398 636 0
-344 -399 657 0
-345 -400 237 0
-345 -401 258 0
-345 -402 279 0
-345 -403 300 0
-345 -404 321 0
-345 -405 342 0
-345 -406 363 0
-345 -407 384 0
-345 -408 405 0
-345 -409 426 0
-345 -410 447 0
-345 -411 468 0
-345 -412 489 0
-345 -413 510 0
-345 -414 531 0
-345 -415 552 0
-345 -416 573 0
-345 -417 594 0
-345 -418 615 0
-345 -419 636 0
-345 -420 657 0
-346 -421 237 0
-346 -422 258 0
-346 -423 279 0
-346 -424 300 0
-346 -425 321 0
-346 -426 342 0
-346 -427 363 0
-346 -428 384 0
-346 -429 405 0
-346 -430 426 0
-346 -431 447 0
-346 -432 468 0
-346 -433 489 0
-346 -434 510 0
-346 -435 531 0
-346 -436 552 0
-346 -437 573 0
-346 -438 594 0
-346 -439 615 0
-346 -440 636 0
-346 -441 657 0
-347 -442 237 0
-347 -443 258 0
-347 -444 279 0
-347 -445 300 0
-347 -446 321 0
-347 -447 342 0
-347 -448 363 0
-347 -449 384 0
-347 -450 405 0
-347 -451 426 0
-347 -452 447 0
-347 -453 468 0
-347 -454 489 0
-347 -455 510 0
-347 -456 531 0
-347 -457 552 0
-347 -458 573 0
-347 -459 594 0
-347 -460 615 0
-347 -461 636 0
-347 -462 657 0
-348 -463 237 0
-348 -464 258 0
-348 -465 279 0
-348 -466 300 0
-348 -467 321 0
-348 -468 342 0
-348 -469 363 0
-348 -470 384 0
-348 -471 405 0
-348 -472 426 0
-348 -473 447 0
-348 -474 468 0
-348 -475 489 0
-348 -476 510 0
-348 -477 531 0
-348 -478 552 0
-348 -479 573 0
-348 -480 594 0
-348 -481 615 0
-348 -482 636 0
-348 -483 657 0
-349 -484 237 0
-349 -485 258 0
-349 -486 279 0
-349 -487 300 0
-349 -488 321 0
-349 -489 342 0
-349 -490 363 0
-349 -491 384 0
-349 -492 405 0
-349 -493 426 0
-349 -494 447 0
-349 -495 468 0
-349 -496 489 0
-349 -497 510 0
-349 -498 531 0
-349 -499 552 0
-349 -500 573 0
-349 -501 594 0
-349 -502 615 0
-349 -503 636 0
-349 -504 657 0
-350 -505 237 0
-350 -506 258 0
-350 -507 279 0
-350 -508 300 0
-350 -509 321 0
-350 -510 342 0
-350 -511 363 0
-350 -512 384 0
-350 -513 405 0
-350 -514 426 0
-350 -515 447 0
-350 -516 468 0
-350 -517 489 0
-350 -518 510 0
-350 -519 531 0
-350 -520 552 0
-350 -521 573 0
-350 -522 594 0
-350 -523 615 0
-350 -524 636 0
-350 -525 657 0
-351 -526 237 0
-351 -527 258 0
-351 -528 279 0
-351 -529 300 0
-351 -530 321 0
-351 -531 342 0
-351 -532 363 0
-351 -533 384 0
-351 -534 405 0
-351 -535 426 0
-351 -536 447 0
-351 -537 468 0
-351 -538 489 0
-351 -539 510 0
-351 -540 531 0
-351 -541 552 0
-351 -542 573 0
-351 -543 594 0
-351 -544 615 0
-351 -545 636 0
-351 -546 657 0
-352 -547 237 0
-352 -548 258 0
-352 -549 279 0
-352 -550 300 0
-352 -551 321 0
-352 -552 342 0
-352 -553 363 0
-352 -554 384 0
-352 -555 405 0
-352 -556 426 0
-352 -557 447 0
-352 -558 468 0
-352 -559 489 0
-352 -560 510 0
-352 -561 531 0
-352 -562 552 0
-352 -563 573 0
-352 -564 594 0
-352 -565 615 0
-352 -566 636 0
-352 -567 657 0
-353 -568 237 0
-353 -569 258 0
-353 -570 279 0
-353 -571 300 0
-353 -572 321 0
-353 -573 342 0
-353 -574 363 0
-353 -575 384 0
-353 -576 405 0
-353 -577 426 0
-353 -578 447 0
-353 -579 468 0
-353 -580 489 0
-353 -581 510 0
-353 -582 531 0
-353 -583 552 0
-353 -584 573 0
-353 -585 594 0
-353 -586 615 0
-353 -587 636 0
-353 -588 657 0
-354 -589 237 0
-354 -590 258 0
-354 -591 279 0
-354 -592 300 0
-354 -593 321 0
-354 -594 342 0
-354 -595 363 0
-354 -596 384 0
-354 -597 405 0
-354 -598 426 0
-354 -599 447 0
-354 -600 468 0
-354 -601 489 0
-354 -602 510 0
-354 -603 531 0
-354 -604 552 0
-354 -605 573 0
-354 -606 594 0
-354 -607 615 0
-354 -608 636 0
-354 -609 657 0
-355 -610 237 0
-355 -611 258 0
-355 -612 279 0
-355 -613 300 0
-355 -614 321 0
-355 -615 342 0
-355 -616 363 0
-355 -617 384 0
-355 -618 405 0
-355 -619 426 0
-355 -620 447 0
-355 -621 468 0
-355 -622 489 0
-355 -623 510 0
-355 -624 531 0
-355 -625 552 0
-355 -626 573 0
-355 -627 594 0
-355 -628 615 0
-355 -629 636 0
-355 -630 657 0
-356 -631 237 0
-356 -632 258 0
-356 -633 279 0
-356 -634 300 0
-356 -635 321 0
-356 -636 342 0
-356 -637 363 0
-356 -638 384 0
-356 -639 405 0
-356 -640 426 0
-356 -641 447 0
-356 -642 468 0
-356 -643 489 0
-356 -644 510 0
-356 -645 531 0
-356 -646 552 0
-356 -647 573 0
-356 -648 594 0
-356 -649 615 0
-356 -650 636 0
-356 -651 657 0
-357 -652 237 0
-357 -653 258 0
-357 -654 279 0
-357 -655 300 0
-357 -656 321 0
-357 -657 342 0
-357 -658 363 0
-357 -659 384 0
-357 -660 405 0
-357 -661 426 0
-357 -662 447 0
-357 -663 468 0
-357 -664 489 0
-357 -665 510 0
-357 -666 531 0
-357 -667 552 0
-357 -668 573 0
-357 -669 594 0
-357 -670 615 0
-357 -671 636 0
-357 -672 657 0
-358 -232 238 0
-358 -233 259 0
-358 -234 280 0
-358 -235 301 0
-358 -236 322 0
-358 -237 343 0
-358 -238 364 0
-358 -239 385 0
-358 -240 406 0
-358 -241 427 0
-358 -242 448 0
-358 -243 469 0
-358 -244 490 0
-358 -245 511 0
-358 -246 532 0
-358 -247 553 0
-358 -248 574 0
-358 -249 595 0
-358 -250 616 0
-358 -251 637 0
-358 -252 658 0
-359 -253 238 0
-359 -254 259 0
-359 -255 280 0
-359 -256 301 0
-359 -257 322 0
-359 -258 343 0
-359 -259 364 0
-359 -260 385 0
-359 -261 406 0
-359 -262 427 0
-359 -263 448 0
-359 -264 469 0
-359 -265 490 0
-359 -266 511 0
-359 -267 532 0
-359 -268 553 0
-359 -269 574 0
-359 -270 595 0
-359 -271 616 0
-359 -272 637 0
-359 -273 658 0
-360 -274 238 0
-360 -275 259 0
-360 -276 280 0
-360 -277 301 0
-360 -278 322 0
-360 -279 343 0
-360 -280 364 0
-360 -281 385 0
-360 -282 406 0
-360 -283 427 0
-360 -284 448 0
-360 -285 469 0
-360 -286 490 0
-360 -287 511 0
-360 -288 532 0
-360 -289 553 0
-360 -290 574 0
-360 -291 595 0
-360 -292 616 0
-360 -293 637 0
-360 -294 658 0
-361 -295 238 0
-361 -296 259 0
-361 -297 280 0
-361 -298 301 0
-361 -299 322 0
-361 -300 343 0
-361 -301 364 0
-361 -302 385 0
-361 -303 406 0
-361 -304 427 0
-361 -305 448 0
-361 -306 469 0
-361 -307 490 0
-361 -308 511 0
-361 -309 532 0
-361 -310 553 0
-361 -311 574 0
-361 -312 595 0
-361 -313 616 0
-361 -314 637 0
-361 -315 658 0
-362 -316 238 0
-362 -317 259 0
-362 -318 280 0
-362 -319 301 0
-362 -320 322 0
-362 -321 343 0
-362 -322 364 0
-362 -323 385 0
-362 -324 406 0
-362 -325 427 0
-362 -326 448 0
-362 -327 469 0
-362 -328 490 0
-362 -329 511 0
-362 -330 532 0
-362 -331 553 0
-362 -332 574 0
-362 -333 595 0
-362 -334 616 0
-362 -335 637 0
-362 -336 658 0
-363 -337 238 0
-363 -338 259 0
-363 -339 280 0
-363 -340 301 0
-363 -341 322 0
-363 -342 343 0
-363 -343 364 0
-363 -344 385 0
-363 -345 406 0
-363 -346 427 0
-363 -347 448 0
-363 -348 469 0
-363 -349 490 0
-363 -350 511 0
-363 -351 532 0
-363 -352 553 0
-363 -353 574 0
-363 -354 595 0
-363 -355 616 0
-363 -356 637 0
-363 -357 658 0
-364 -358 238 0
-364 -359 259 0
-364 -360 280 0
-364 -361 301 0
-364 -362 322 0
-364 -363 343 0
-364 -364 364 0
-364 -365 385 0
-364 -366 406 0
-364 -367 427 0
-364 -368 448 0
-364 -369 469 0
-364 -370 490 0
-364 -371 511 0
-364 -372 532 0
-364 -373 553 0
-364 -374 574 0
-364 -375 595 0
-364 -376 616 0
-364 -377 637 0
-364 -378 658 0
-365 -379 238 0
-365 -380 259 0
-365 -381 280 0
-365 -382 301 0
-365 -383 322 0
-365 -384 343 0
-365 -385 364 0
-365 -386 385 0
-365 -387 406 0
-365 -388 427 0
-365 -389 448 0
-365 -390 469 0
-365 -391 490 0
-365 -392 511 0
-365 -393 532 0
-365 -394 553 0
-365 -395 574 0
-365 -396 595 0
-365 -397 616 0
-365 -398 637 0
-365 -399 658 0
-366 -400 238 0
-366 -401 259 0
-366 -402 280 0
-366 -403 301 0
-366 -404 322 0
-366 -405 343 0
-366 -406 364 0
-366 -407 385 0
-366 -408 406 0
-366 -409 427 0
-366 -410 448 0
-366 -411 469 0
-366 -412 490 0
-366 -413 511 0
-366 -414 532 0
-366 -415 553 0
-366 -416 574 0
-366 -417 595 0
-366 -418 616 0
-366 -419 637 0
-366 -420 658 0
-367 -421 238 0
-367 -422 259 0
-367 -423 280 0
-367 -424 301 0
-367 -425 322 0
-367 -426 343 0
-367 -427 364 0
-367 -428 385 0
-367 -429 406 0
-367 -430 427 0
-367 -431 448 0
-367 -432 469 0
-367 -433 490 0
-367 -434 511 0
-367 -435 532 0
-367 -436 553 0
-367 -437 574 0
-367 -438 595 0
-367 -439 616 0
-367 -440 637 0
-367 -441 658 0
-368 -442 238 0
-368 -443 259 0
-368 -444 280 0
-368 -445 301 0
-368 -446 322 0
-368 -447 343 0
-368 -448 364 0
-368 -449 385 0
-368 -450 406 0
-368 -451 427 0
-368 -452 448 0
-368 -453 469 0
-368 -454 490 0
-368 -455 511 0
-368 -456 532 0
-368 -457 553 0
-368 -458 574 0
-368 -459 595 0
-368 -460 616 0
-368 -461 637 0
-368 -462 658 0
-369 -463 238 0
-369 -464 259 0
-369 -465 280 0
-369 -466 301 0
-369 -467 322 0
-369 -468 343 0
-369 -469 364 0
-369 -470 385 0
-369 -471 406 0
-369 -472 427 0
-369 -473 448 0
-369 -474 469 0
-369 -475 490 0
-369 -476 511 0
-369 -477 532 0
-369 -478 553 0
-369 -479 574 0
-369 -480 595 0
-369 -481 616 0
-369 -482 637 0
-369 -483 658 0
-370 -484 238 0
-370 -485 259 0
-370 -486 280 0
-370 -487 301 0
-370 -488 322 0
-370 -489 343 0
-370 -490 364 0
-370 -491 385 0
-370 -492 406 0
-370 -493 427 0
-370 -494 448 0
-370 -495 469 0
-370 -496 490 0
-370 -497 511 0
-370 -498 532 0
-370 -499 553 0
-370 -500 574 0
-370 -501 595 0
-370 -502 616 0
-370 -503 637 0
-370 -504 658 0
-371 -505 238 0
-371 -506 259 0
-371 -507 280 0
-371 -508 301 0
-371 -509 322 0
-371 -510 343 0
-371 -511 364 0
-371 -512 385 0
-371 -513 406 0
-371 -514 427 0
-371 -515 448 0
-371 -516 469 0
-371 -517 490 0
-371 -518 511 0
-371 -519 532 0
-371 -520 553 0
-371 -521 574 0
-371 -522 595 0
-371 -523 616 0
-371 -524 637 0
-371 -525 658 0
-372 -526 238 0
-372 -527 259 0
-372 -528 280 0
-372 -529 301 0
-372 -530 322 0
-372 -531 343 0
-372 -532 364 0
-372 -533 385 0
-372 -534 406 0
-372 -535 427 0
-372 -536 448 0
-372 -537 469 0
-372 -538 490 0
-372 -539 511 0
-372 -540 532 0
-372 -541 553 0
-372 -542 574 0
-372 -543 595 0
-372 -544 616 0
-372 -545 637 0
-372 -546 658 0
-373 -547 238 0
-373 -548 259 0
-373 -549 280 0
-373 -550 301 0
-373 -551 322 0
-373 -552 343 0
-373 -553 364 0
-373 -554 385 0
-373 -555 406 0
-373 -556 427 0
-373 -557 448 0
-373 -558 469 0
-373 -559 490 0
-373 -560 511 0
-373 -561 532 0
-373 -562 553 0
-373 -563 574 0
-373 -564 595 0
-373 -565 616 0
-373 -566 637 0
-373 -567 658 0
-374 -568 238 0
-374 -569 259 0
-374 -570 280 0
-374 -571 301 0
-374 -572 322 0
-374 -573 343 0
-374 -574 364 0
-374 -575 385 0
-374 -576 406 0
-374 -577 427 0
-374 -578 448 0
-374 -579 469 0
-374 -580 490 0
-374 -581 511 0
-374 -582 532 0
-374 -583 553 0
-374 -584 574 0
-374 -585 595 0
-374 -586 616 0
-374 -587 637 0
-374 -588 658 0
-375 -589 238 0
-375 -590 259 0
-375 -591 280 0
-375 -592 301 0
-375 -593 322 0
-375 -594 343 0
-375 -595 364 0
-375 -596 385 0
-375 -597 406 0
-375 -598 427 0
-375 -599 448 0
-375 -600 469 0
-375 -601 490 0
-375 -602 511 0
-375 -603 532 0
-375 -604 553 0
-375 -605 574 0
-375 -606 595 0
-375 -607 616 0
-375 -608 637 0
-375 -609 658 0
-376 -610 238 0
-376 -611 259 0
-376 -612 280 0
-376 -613 301 0
-376 -614 322 0
-376 -615 343 0
-376 -616 364 0
-376 -617 385 0
-376 -618 406 0
-376 -619 427 0
-376 -620 448 0
-376 -621 469 0
-376 -622 490 0
-376 -623 511 0
-376 -624 532 0
-376 -625 553 0
-376 -626 574 0
-376 -627 595 0
-376 -628 616 0
-376 -629 637 0
-376 -630 658 0
-377 -631 238 0
-377 -632 259 0
-377 -633 280 0
-377 -634 301 0
-377 -635 322 0
-377 -636 343 0
-377 -637 364 0
-377 -638 385 0
-377 -639 406 0
-377 -640 427 0
-377 -641 448 0
-377 -642 469 0
-377 -643 490 0
-377 -644 511 0
-377 -645 532 0
-377 -646 553 0
-377 -647 574 0
-377 -648 595 0
-377 -649 616 0
-377 -650 637 0
-377 -651 658 0
-378 -652 238 0
-378 -653 259 0
-378 -654 280 0
-378 -655 301 0
-378 -656 322 0
-378 -657 343 0
-378 -658 364 0
-378 -659 385 0
-378 -660 406 0
-378 -661 427 0
-378 -662 448 0
-378 -663 469 0
-378 -664 490 0
-378 -665 511 0
-378 -666 532 0
-378 -667 553 0
-378 -668 574 0
-378 -669 595 0
-378 -670 616 0
-378 -671 637 0
-378 -672 658 0
-379 -232 239 0
-379 -233 260 0
-379 -234 281 0
-379 -235 302 0
-379 -236 323 0
-379 -237 344 0
-379 -238 365 0
-379 -239 386 0
-379 -240 407 0
-379 -241 428 0
-379 -242 449 0
-379 -243 470 0
-379 -244 491 0
-379 -245 512 0
-379 -246 533 0
-379 -247 554 0
-379 -248 575 0
-379 -249 596 0
-379 -250 617 0
-379 -251 638 0
-379 -252 659 0
-380 -253 239 0
-380 -254 260 0
-380 -255 281 0
-380 -256 302 0
-380 -257 323 0
-380 -258 344 0
-380 -259 365 0
-380 -260 386 0
-380 -261 407 0
-380 -262 428 0
-380 -263 449 0
-380 -264 470 0
-380 -265 491 0
-380 -266 512 0
-380 -267 533 0
-380 -268 554 0
-380 -269 575 0
-380 -270 596 0
-380 -271 617 0
-380 -272 638 0
-380 -273 659 0
-381 -274 239 0
-381 -275 260 0
-381 -276 281 0
-381 -277 302 0
-381 -278 323 0
-381 -279 344 0
-381 -280 365 0
-381 -281 386 0
-381 -282 407 0
-381 -283 428 0
-381 -284 449 0
-381 -285 470 0
-381 -286 491 0
-381 -287 512 0
-381 -288 533 0
-381 -289 554 0
-381 -290 575 0
-381 -291 596 0
-381 -292 617 0
-381 -293 638 0
-381 -294 659 0
-382 -295 239 0
-382 -296 260 0
-382 -297 281 0
-382 -298 302 0
-382 -299 323 0
-382 -300 344 0
-382 -301 365 0
-382 -302 386 0
-382 -303 407 0
-382 -304 428 0
-382 -305 449 0
-382 -306 470 0
-382 -307 491 0
-382 -308 512 0
-382 -309 533 0
-382 -310 554 0
-382 -311 575 0
-382 -312 596 0
-382 -313 617 0
-382 -314 638 0
-382 -315 659 0
-383 -316 239 0
-383 -317 260 0
-383 -318 281 0
-383 -319 302 0
-383 -320 323 0
-383 -321 344 0
-383 -322 365 0
-383 -323 386 0
-383 -324 407 0
-383 -325 428 0
-383 -326 449 0
-383 -327 470 0
-383 -328 491 0
-383 -329 512 0
-383 -330 533 0
-383 -331 554 0
-383 -332 575 0
-383 -333 596 0
-383 -334 617 0
-383 -335 638 0
-383 -336 659 0
-384 -337 239 0
-384 -338 260 0
-384 -339 281 0
-384 -340 302 0
-384 -341 323 0
-384 -342 344 0
-384 -343 365 0
-384 -344 386 0
-384 -345 407 0
-384 -346 428 0
-384 -347 449 0
-384 -348 470 0
-384 -349 491 0
-384 -350 512 0
-384 -351 533 0
-384 -352 554 0
-384 -353 575 0
-384 -354 596 0
-384 -355 617 0
-384 -356 638 0
-384 -357 659 0
-385 -358 239 0
-385 -359 260 0
-385 -360 281 0
-385 -361 302 0
-385 -362 323 0
-385 -363 344 0
-385 -364 365 0
-385 -365 386 0
-385 -366 407 0
-385 -367 428 0
-385 -368 449 0
-385 -369 470 0
-385 -370 491 0
-385 -371 512 0
-385 -372 533 0
-385 -373 554 0
-385 -374 575 0
-385 -375 596 0
-385 -376 617 0
-385 -377 638 0
-385 -378 659 0
-386 -379 239 0
-386 -380 260 0
-386 -381 281 0
-386 -382 302 0
-386 -383 323 0
-386 -384 344 0
-386 -385 365 0
-386 -386 386 0
-386 -387 407 0
-386 -388 428 0
-386 -389 449 0
-386 -390 470 0
-386 -391 491 0
-386 -392 512 0
-386 -393 533 0
-386 -394 554 0
-386 -395 575 0
-386 -396 596 0
-386 -397 617 0
-386 -398 638 0
-386 -399 659 0
-387 -400 239 0
-387 -401 260 0
-387 -402 281 0
-387 -403 302 0
-387 -404 323 0
-387 -405 344 0
-387 -406 365 0
-387 -407 386 0
-387 -408 407 0
-387 -409 428 0
-387 -410 449 0
-387 -411 470 0
-387 -412 491 0
-387 -413 512 0
-387 -414 533 0
-387 -415 554 0
-387 -416 575 0
-387 -417 596 0
-387 -418 617 0
-387 -419 638 0
-387 -420 659 0
-388 -421 239 0
-388 -422 260 0
-388 -423 281 0
-388 -424 302 0
-388 -425 323 0
-388 -426 344 0
-388 -427 365 0
-388 -428 386 0
-388 -429 407 0
-388 -430 428 0
-388 -431 449 0
-388 -432 470 0
-388 -433 491 0
-388 -434 512 0
-388 -435 533 0
-388 -436 554 0
-388 -437 575 0
-388 -438 596 0
-388 -439 617 0
-388 -440 638 0
-388 -441 659 0
-389 -442 239 0
-389 -443 260 0
-389 -444 281 0
-389 -445 302 0
-389 -446 323 0
-389 -447 344 0
-389 -448 365 0
-389 -449 386 0
-389 -450 407 0
-389 -451 428 0
-389 -452 449 0
-389 -453 470 0
-389 -454 491 0
-389 -455 512 0
-389 -456 533 0
-389 -457 554 0
-389 -458 575 0
-389 -459 596 0
-389 -460 617 0
-389 -461 638 0
-389 -462 659 0
-390 -463 239 0
-390 -464 260 0
-390 -465 281 0
-390 -466 302 0
-390 -467 323 0
-390 -468 344 0
-390 -469 365 0
-390 -470 386 0
-390 -471 407 0
-390 -472 428 0
-390 -473 449 0
-390 -474 470 0
-390 -475 491 0
-390 -476 512 0
-390 -477 533 0
-390 -478 554 0
-390 -479 575 0
-390 -480 596 0
-390 -481 617 0
-390 -482 638 0
-390 -483 659 0
-391 -484 239 0
-391 -485 260 0
-391 -486 281 0
-391 -487 302 0
-391 -488 323 0
-391 -489 344 0
-391 -490 365 0
-391 -491 386 0
-391 -492 407 0
-391 -493 428 0
-391 -494 449 0
-391 -495 470 0
-391 -496 491 0
-391 -497 512 0
-391 -498 533 0
-391 -499 554 0
-391 -500 575 0
-391 -501 596 0
-391 -502 617 0
-391 -503 638 0
-391 -504 659 0
-392 -505 239 0
-392 -506 260 0
-392 -507 281 0
-392 -508 302 0
-392 -509 323 0
-392 -510 344 0
-392 -511 365 0
-392 -512 386 0
-392 -513 407 0
-392 -514 428 0
-392 -515 449 0
-392 -516 470 0
-392 -517 491 0
-392 -518 512 0
-392 -519 533 0
-392 -520 554 0
-392 -521 575 0
-392 -522 596 0
-392 -523 617 0
-392 -524 638 0
-392 -525 659 0
-393 -526 239 0
-393 -527 260 0
-393 -528 281 0
-393 -529 302 0
-393 -530 323 0
-393 -531 344 0
-393 -532 365 0
-393 -533 386 0
-393 -534 407 0
-393 -535 428 0
-393 -536 449 0
-393 -537 470 0
-393 -538 491 0
-393 -539 512 0
-393 -540 533 0
-393 -541 554 0
-393 -542 575 0
-393 -543 596 0
-393 -544 617 0
-393 -545 638 0
-393 -546 659 0
-394 -547 239 0
-394 -548 260 0
-394 -549 281 0
-394 -550 302 0
-394 -551 323 0
-394 -552 344 0
-394 -553 365 0
-394 -554 386 0
-394 -555 407 0
-394 -556 428 0
-394 -557 449 0
-394 -558 470 0
-394 -559 491 0
-394 -560 512 0
-394 -561 533 0
-394 -562 554 0
-394 -563 575 0
-394 -564 596 0
-394 -565 617 0
-394 -566 638 0
-394 -567 659 0
-395 -568 239 0
-395 -569 260 0
-395 -570 281 0
-395 -571 302 0
-395 -572 323 0
-395 -573 344 0
-395 -574 365 0
-395 -575 386 0
-395 -576 407 0
-395 -577 428 0
-395 -578 449 0
-395 -579 470 0
-395 -580 491 0
-395 -581 512 0
-395 -582 533 0
-395 -583 554 0
-395 -584 575 0
-395 -585 596 0
-395 -586 617 0
-395 -587 638 0
-395 -588 659 0
-396 -589 239 0
-396 -590 260 0
-396 -591 281 0
-396 -592 302 0
-396 -593 323 0
-396 -594 344 0
-396 -595 365 0
-396 -596 386 0
-396 -597 407 0
-396 -598 428 0
-396 -599 449 0
-396 -600 470 0
-396 -601 491 0
-396 -602 512 0
-396 -603 533 0
-396 -604 554 0
-396 -605 575 0
-396 -606 596 0
-396 -607 617 0
-396 -608 638 0
-396 -609 659 0
-397 -610 239 0
-397 -611 260 0
-397 -612 281 0
-397 -613 302 0
-397 -614 323 0
-397 -615 344 0
-397 -616 365 0
-397 -617 386 0
-397 -618 407 0
-397 -619 428 0
-397 -620 449 0
-397 -621 470 0
-397 -622 491 0
-397 -623 512 0
-397 -624 533 0
-397 -625 554 0
-397 -626 575 0
-397 -627 596 0
-397 -628 617 0
-397 -629 638 0
-397 -630 659 0
-398 -631 239 0
-398 -632 260 0
-398 -633 281 0
-398 -634 302 0
-398 -635 323 0
-398 -636 344 0
-398 -637 365 0
-398 -638 386 0
-398 -639 407 0
-398 -640 428 0
-398 -641 449 0
-398 -642 470 0
-398 -643 491 0
-398 -644 512 0
-398 -645 533 0
-398 -646 554 0
-398 -647 575 0
-398 -648 596 0
-398 -649 617 0
-398 -650 638 0
-398 -651 659 0
-399 -652 239 0
-399 -653 260 0
-399 -654 281 0
-399 -655 302 0
-399 -656 323 0
-399 -657 344 0
-399 -658 365 0
-399 -659 386 0
-399 -660 407 0
-399 -661 428 0
-399 -662 449 0
-399 -663 470 0
-399 -664 491 0
-399 -665 512 0
-399 -666 533 0
-399 -667 554 0
-399 -668 575 0
-399 -669 596 0
-399 -670 617 0
-399 -671 638 0
-399 -672 659 0
-400 -232 240 0
-400 -233 261 0
-400 -234 282 0
-400 -235 303 0
-400 -236 324 0
-400 -237 345 0
-400 -238 366 0
-400 -239 387 0
-400 -240 408 0
-400 -241 429 0
-400 -242 450 0
-400 -243 471 0
-400 -244 492 0
-400 -245 513 0
-400 -246 534 0
-400 -247 555 0
-400 -248 576 0
-400 -249 597 0
-400 -250 618 0
-400 -251 639 0
-400 -252 660 0
-401 -253 240 0
-401 -254 261 0
-401 -255 282 0
-401 -256 303 0
-401 -257 324 0
-401 -258 345 0
-401 -259 366 0
-401 -260 387 0
-401 -261 408 0
-401 -262 429 0
-401 -263 450 0
-401 -264 471 0
-401 -265 492 0
-401 -266 513 0
-401 -267 534 0
-401 -268 555 0
-401 -269 576 0
-401 -270 597 0
-401 -271 618 0
-401 -272 639 0
-401 -273 660 0
-402 -274 240 0
-402 -275 261 0
-402 -276 282 0
-402 -277 303 0
-402 -278 324 0
-402 -279 345 0
-402 -280 366 0
-402 -281 387 0
-402 -282 408 0
-402 -283 429 0
-402 -284 450 0
-402 -285 471 0
-402 -286 492 0
-402 -287 513 0
-402 -288 534 0
-402 -289 555 0
-402 -290 576 0
-402 -291 597 0
-402 -292 618 0
-402 -293 639 0
-402 -294 660 0
-403 -295 240 0
-403 -296 261 0
-403 -297 282 0
-403 -298 303 0
-403 -299 324 0
-403 -300 345 0
-403 -301 366 0
-403 -302 387 0
-403 -303 408 0
-403 -304 429 0
-403 -305 450 0
-403 -306 471 0
-403 -307 492 0
-403 -308 513 0
-403 -309 534 0
-403 -310 555 0
-403 -311 576 0
-403 -312 597 0
-403 -313 618 0
-403 -314 639 0
-403 -315 660 0
-404 -316 240 0
-404 -317 261 0
-404 -318 282 0
-404 -319 303 0
-404 -320 324 0
-404 -321 345 0
-404 -322 366 0
-404 -323 387 0
-404 -324 408 0
-404 -325 429 0
-404 -326 450 0
-404 -327 471 0
-404 -328 492 0
-404 -329 513 0
-404 -330 534 0
-404 -331 555 0
-404 -332 576 0
-404 -333 597 0
-404 -334 618 0
-404 -335 639 0
-404 -336 660 0
-405 -337 240 0
-405 -338 261 0
-405 -339 282 0
-405 -340 303 0
-405 -341 324 0
-405 -342 345 0
-405 -343 366 0
-405 -344 387 0
-405 -345 408 0
-405 -346 429 0
-405 -347 450 0
-405 -348 471 0
-405 -349 492 0
-405 -350 513 0
-405 -351 534 0
-405 -352 555 0
-405 -353 576 0
-405 -354 597 0
-405 -355 618 0
-405 -356 639 0
-405 -357 660 0
-406 -358 240 0
-406 -359 261 0
-406 -360 282 0
-406 -361 303 0
-406 -362 324 0
-406 -363 345 0
-406 -364 366 0
-406 -365 387 0
-406 -366 408 0
-406 -367 429 0
-406 -368 450 0
-406 -369 471 0
-406 -370 492 0
-406 -371 513 0
-406 -372 534 0
-406 -373 555 0
-406 -374 576 0
-406 -375 597 0
-406 -376 618 0
-406 -377 639 0
-406 -378 660 0
-407 -379 240 0
-407 -380 261 0
-407 -381 282 0
-407 -382 303 0
-407 -383 324 0
-407 -384 345 0
-407 -385 366 0
-407 -386 387 0
-407 -387 408 0
-407 -388 429 0
-407 -389 450 0
-407 -390 471 0
-407 -391 492 0
-407 -392 513 0
-407 -393 534 0
-407 -394 555 0
-407 -395 576 0
-407 -396 597 0
-407 -397 618 0
-407 -398 639 0
-407 -399 660 0
-408 -400 240 0
-408 -401 261 0
-408 -402 282 0
-408 -403 303 0
-408 -404 324 0
-408 -405 345 0
-408 -406 366 0
-408 -407 387 0
-408 -408 408 0
-408 -409 429 0
-408 -410 450 0
-408 -411 471 0
-408 -412 492 0
-408 -413 513 0
-408 -414 534 0
-408 -415 555 0
-408 -416 576 0
-408 -417 597 0
-408 -418 618 0
-408 -419 639 0
-408 -420 660 0
-409 -421 240 0
-409 -422 261 0
-409 -423 282 0
-409 -424 303 0
-409 -425 324 0
-409 -426 345 0
-409 -427 366 0
-409 -428 387 0
-409 -429 408 0
-409 -430 429 0
-409 -431 450 0
-409 -432 471 0
-409 -433 492 0
-409 -434 513 0
-409 -435 534 0
-409 -436 555 0
-409 -437 576 0
-409 -438 597 0
-409 -439 618 0
-409 -440 639 0
-409 -441 660 0
-410 -442 240 0
-410 -443 261 0
-410 -444 282 0
-410 -445 303 0
-410 -446 324 0
-410 -447 345 0
-410 -448 366 0
-410 -449 387 0
-410 -450 408 0
-410 -451 429 0
-410 -452 450 0
-410 -453 471 0
-410 -454 492 0
-410 -455 513 0
-410 -456 534 0
-410 -457 555 0
-410 -458 576 0
-410 -459 597 0
-410 -460 618 0
-410 -461 639 0
-410 -462 660 0
-411 -463 240 0
-411 -464 261 0
-411 -465 282 0
-411 -466 303 0
-411 -467 324 0
-411 -468 345 0
-411 -469 366 0
-411 -470 387 0
-411 -471 408 0
-411 -472 429 0
-411 -473 450 0
-411 -474 471 0
-411 -475 492 0
-411 -476 513 0
-411 -477 534 0
-411 -478 555 0
-411 -479 576 0
-411 -480 597 0
-411 -481 618 0
-411 -482 639 0
-411 -483 660 0
-412 -484 240 0
-412 -485 261 0
-412 -486 282 0
-412 -487 303 0
-412 -488 324 0
-412 -489 345 0
-412 -490 366 0
-412 -491 387 0
-412 -492 408 0
-412 -493 429 0
-412 -494 450 0
-412 -495 471 0
-412 -496 492 0
-412 -497 513 0
-412 -498 534 0
-412 -499 555 0
-412 -500 576 0
-412 -501 597 0
-412 -502 618 0
-412 -503 639 0
-412 -504 660 0
-413 -505 240 0
-413 -506 261 0
-413 -507 282 0
-413 -508 303 0
-413 -509 324 0
-413 -510 345 0
-413 -511 366 0
-413 -512 387 0
-413 -513 408 0
-413 -514 429 0
-413 -515 450 0
-413 -516 471 0
-413 -517 492 0
-413 -518 513 0
-413 -519 534 0
-413 -520 555 0
-413 -521 576 0
-413 -522 597 0
-413 -523 618 0
-413 -524 639 0
-413 -525 660 0
-414 -526 240 0
-414 -527 261 0
-414 -528 282 0
-414 -529 303 0
-414 -530 324 0
-414 -531 345 0
-414 -532 366 0
-414 -533 387 0
-414 -534 408 0
-414 -535 429 0
-414 -536 450 0
-414 -537 471 0
-414 -538 492 0
-414 -539 513 0
-414 -540 534 0
-414 -541 555 0
-414 -542 576 0
-414 -543 597 0
-414 -544 618 0
-414 -545 639 0
-414 -546 660 0
-415 -547 240 0
-415 -548 261 0
-415 -549 282 0
-415 -550 303 0
-415 -551 324 0
-415 -552 345 0
-415 -553 366 0
-415 -554 387 0
-415 -555 408 0
-415 -556 429 0
-415 -557 450 0
-415 -558 471 0
-415 -559 492 0
-415 -560 513 0
-415 -561 534 0
-415 -562 555 0
-415 -563 576 0
-415 -564 597 0
-415 -565 618 0
-415 -566 639 0
-415 -567 660 0
-416 -568 240 0
-416 -569 261 0
-416 -570 282 0
-416 -571 303 0
-416 -572 324 0
-416 -573 345 0
-416 -574 366 0
-416 -575 387 0
-416 -576 408 0
-416 -577 429 0
-416 -578 450 0
-416 -579 471 0
-416 -580 492 0
-416 -581 513 0
-416 -582 534 0
-416 -583 555 0
-416 -584 576 0
-416 -585 597 0
-416 -586 618 0
-416 -587 639 0
-416 -588 660 0
-417 -589 240 0
-417 -590 261 0
-417 -591 282 0
-417 -592 303 0
-417 -593 324 0
-417 -594 345 0
-417 -595 366 0
-417 -596 387 0
-417 -597 408 0
-417 -598 429 0
-417 -599 450 0
-417 -600 471 0
-417 -601 492 0
-417 -602 513 0
-417 -603 534 0
-417 -604 555 0
-417 -605 576 0
-417 -606 597 0
-417 -607 618 0
-417 -608 639 0
-417 -609 660 0
-418 -610 240 0
-418 -611 261 0
-418 -612 282 0
-418 -613 303 0
-418 -614 324 0
-418 -615 345 0
-418 -616 366 0
-418 -617 387 0
-418 -618 408 0
-418 -619 429 0
-418 -620 450 0
-418 -621 471 0
-418 -622 492 0
-418 -623 513 0
-418 -624 534 0
-418 -625 555 0
-418 -626 576 0
-418 -627 597 0
-418 -628 618 0
-418 -629 639 0
-418 -630 660 0
-419 -631 240 0
-419 -632 261 0
-419 -633 282 0
-419 -634 303 0
-419 -635 324 0
-419 -636 345 0
-419 -637 366 0
-419 -638 387 0
-419 -639 408 0
-419 -640 429 0
-419 -641 450 0
-419 -642 471 0
-419 -643 492 0
-419 -644 513 0
-419 -645 534 0
-419 -646 555 0
-419 -647 576 0
-419 -648 597 0
-419 -649 618 0
-419 -650 639 0
-419 -651 660 0
-420 -652 240 0
-420 -653 261 0
-420 -654 282 0
-420 -655 303 0
-420 -656 324 0
-420 -657 345 0
-420 -658 366 0
-420 -659 387 0
-420 -660 408 0
-420 -661 429 0
-420 -662 450 0
-420 -663 471 0
-420 -664 492 0
-420 -665 513 0
-420 -666 534 0
-420 -667 555 0
-420 -668 576 0
-420 -669 597 0
-420 -670 618 0
-420 -671 639 0
-420 -672 660 0
-421 -232 241 0
-421 -233 262 0
-421 -234 283 0
-421 -235 304 0
-421 -236 325 0
-421 -237 346 0
-421 -238 367 0
-421 -239 388 0
-421 -240 409 0
-421 -241 430 0
-421 -242 451 0
-421 -243 472 0
-421 -244 493 0
-421 -245 514 0
-421 -246 535 0
-421 -247 556 0
-421 -248 577 0
-421 -249 598 0
-421 -250 619 0
-421 -251 640 0
-421 -252 661 0
-422 -253 241 0
-422 -254 262 0
-422 -255 283 0
-422 -256 304 0
-422 -257 325 0
-422 -258 346 0
-422 -259 367 0
-422 -260 388 0
-422 -261 409 0
-422 -262 430 0
-422 -263 451 0
-422 -264 472 0
-422 -265 493 0
-422 -266 514 0
-422 -267 535 0
-422 -268 556 0
-422 -269 577 0
-422 -270 598 0
-422 -271 619 0
-422 -272 640 0
-422 -273 661 0
-423 -274 241 0
-423 -275 262 0
-423 -276 283 0
-423 -277 304 0
-423 -278 325 0
-423 -279 346 0
-423 -280 367 0
-423 -281 388 0
-423 -282 409 0
-423 -283 430 0
-423 -284 451 0
-423 -285 472 0
-423 -286 493 0
-423 -287 514 0
-423 -288 535 0
-423 -289 556 0
-423 -290 577 0
-423 -291 598 0
-423 -292 619 0
-423 -293 640 0
-423 -294 661 0
-424 -295 241 0
-424 -296 262 0
-424 -297 283 0
-424 -298 304 0
-424 -299 325 0
-424 -300 346 0
-424 -301 367 0
-424 -302 388 0
-424 -303 409 0
-424 -304 430 0
-424 -305 451 0
-424 -306 472 0
-424 -307 493 0
-424 -308 514 0
-424 -309 535 0
-424 -310 556 0
-424 -311 577 0
-424 -312 598 0
-424 -313 619 0
-424 -314 640 0
-424 -315 661 0
-425 -316 241 0
-425 -317 262 0
-425 -318 283 0
-425 -319 304 0
-425 -320 325 0
-425 -321 346 0
-425 -322 367 0
-425 -323 388 0
-425 -324 409 0
-425 -325 430 0
-425 -326 451 0
-425 -327 472 0
-425 -328 493 0
-425 -329 514 0
-425 -330 535 0
-425 -331 556 0
-425 -332 577 0
-425 -333 598 0
-425 -334 619 0
-425 -335 640 0
-425 -336 661 0
-426 -337 241 0
-426 -338 262 0
-426 -339 283 0
-426 -340 304 0
-426 -341 325 0
-426 -342 346 0
-426 -343 367 0
-426 -344 388 0
-426 -345 409 0
-426 -346 430 0
-426 -347 451 0
-426 -348 472 0
-426 -349 493 0
-426 -350 514 0
-426 -351 535 0
-426 -352 556 0
-426 -353 577 0
-426 -354 598 0
-426 -355 619 0
-426 -356 640 0
-426 -357 661 0
-427 -358 241 0
-427 -359 262 0
-427 -360 283 0
-427 -361 304 0
-427 -362 325 0
-427 -363 346 0
-427 -364 367 0
-427 -365 388 0
-427 -366 409 0
-427 -367 430 0
-427 -368 451 0
-427 -369 472 0
-427 -370 493 0
-427 -371 514 0
-427 -372 535 0
-427 -373 556 0
-427 -374 577 0
-427 -375 598 0
-427 -376 619 0
-427 -377 640 0
-427 -378 661 0
-428 -379 241 0
-428 -380 262 0
-428 -381 283 0
-428 -382 304 0
-428 -383 325 0
-428 -384 346 0
-428 -385 367 0
-428 -386 388 0
-428 -387 409 0
-428 -388 430 0
-428 -389 451 0
-428 -390 472 0
-428 -391 493 0
-428 -392 514 0
-428 -393 535 0
-428 -394 556 0
-428 -395 577 0
-428 -396 598 0
-428 -397 619 0
-428 -398 640 0
-428 -399 661 0
-429 -400 241 0
-429 -401 262 0
-429 -402 283 0
-429 -403 304 0
-429 -404 325 0
-429 -405 346 0
-429 -406 367 0
-429 -407 388 0
-429 -408 409 0
-429 -409 430 0
-429 -410 451 0
-429 -411 472 0
-429 -412 493 0
-429 -413 514 0
-429 -414 535 0
-429 -415 556 0
-429 -416 577 0
-429 -417 598 0
-429 -418 619 0
-429 -419 640 0
-429 -420 661 0
-430 -421 241 0
-430 -422 262 0
-430 -423 283 0
-430 -424 304 0
-430 -425 325 0
-430 -426 346 0
-430 -427 367 0
-430 -428 388 0
-430 -429 409 0
-430 -430 430 0
-430 -431 451 0
-430 -432 472 0
-430 -433 493 0
-430 -434 514 0
-430 -435 535 0
-430 -436 556 0
-430 -437 577 0
-430 -438 598 0
-430 -439 619 0
-430 -440 640 0
-430 -441 661 0
-431 -442 241 0
-431 -443 262 0
-431 -444 283 0
-431 -445 304 0
-431 -446 325 0
-431 -447 346 0
-431 -448 367 0
-431 -449 388 0
-431 -450 409 0
-431 -451 430 0
-431 -452 451 0
-431 -453 472 0
-431 -454 493 0
-431 -455 514 0
-431 -456 535 0
-431 -457 556 0
-431 -458 577 0
-431 -459 598 0
-431 -460 619 0
-431 -461 640 0
-431 -462 661 0
-432 -463 241 0
-432 -464 262 0
-432 -465 283 0
-432 -466 304 0
-432 -467 325 0
-432 -468 346 0
-432 -469 367 0
-432 -470 388 0
-432 -471 409 0
-432 -472 430 0
-432 -473 451 0
-432 -474 472 0
-432 -475 493 0
-432 -476 514 0
-432 -477 535 0
-432 -478 556 0
-432 -479 577 0
-432 -480 598 0
-432 -481 619 0
-432 -482 640 0
-432 -483 661 0
-433 -484 241 0
-433 -485 262 0
-433 -486 283 0
-433 -487 304 0
-433 -488 325 0
-433 -489 346 0
-433 -490 367 0
-433 -491 388 0
-433 -492 409 0
-433 -493 430 0
-433 -494 451 0
-433 -495 472 0
-433 -496 493 0
-433 -497 514 0
-433 -498 535 0
-433 -499 556 0
-433 -500 577 0
-433 -501 598 0
-433 -502 619 0
-433 -503 640 0
-433 -504 661 0
-434 -505 241 0
-434 -506 262 0
-434 -507 283 0
-434 -508 304 0
-434 -509 325 0
-434 -510 346 0
-434 -511 367 0
-434 -512 388 0
-434 -513 409 0
-434 -514 430 0
-434 -515 451 0
-434 -516 472 0
-434 -517 493 0
-434 -518 514 0
-434 -519 535 0
-434 -520 556 0
-434 -521 577 0
-434 -522 598 0
-434 -523 619 0
-434 -524 640 0
-434 -525 661 0
-435 -526 241 0
-435 -527 262 0
-435 -528 283 0
-435 -529 304 0
-435 -530 325 0
-435 -531 346 0
-435 -532 367 0
-435 -533 388 0
-435 -534 409 0
-435 -535 430 0
-435 -536 451 0
-435 -537 472 0
-435 -538 493 0
-435 -539 514 0
-435 -540 535 0
-435 -541 556 0
-435 -542 577 0
-435 -543 598 0
-435 -544 619 0
-435 -545 640 0
-435 -546 661 0
-436 -547 241 0
-436 -548 262 0
-436 -549 283 0
-436 -550 304 0
-436 -551 325 0
-436 -552 346 0
-436 -553 367 0
-436 -554 388 0
-436 -555 409 0
-436 -556 430 0
-436 -557 451 0
-436 -558 472 0
-436 -559 493 0
-436 -560 514 0
-436 -561 535 0
-436 -562 556 0
-436 -563 577 0
-436 -564 598 0
-436 -565 619 0
-436 -566 640 0
-436 -567 661 0
-437 -568 241 0
-437 -569 262 0
-437 -570 283 0
-437 -571 304 0
-437 -572 325 0
-437 -573 346 0
-437 -574 367 0
-437 -575 388 0
-437 -576 409 0
-437 -577 430 0
-437 -578 451 0
-437 -579 472 0
-437 -580 493 0
-437 -581 514 0
-437 -582 535 0
-437 -583 556 0
-437 -584 577 0
-437 -585 598 0
-437 -586 619 0
-437 -587 640 0
-437 -588 661 0
-438 -589 241 0
-438 -590 262 0
-438 -591 283 0
-438 -592 304 0
-438 -593 325 0
-438 -594 346 0
-438 -595 367 0
-438 -596 388 0
-438 -597 409 0
-438 -598 430 0
-438 -599 451 0
-438 -600 472 0
-438 -601 493 0
-438 -602 514 0
-438 -603 535 0
-438 -604 556 0
-438 -605 577 0
-438 -606 598 0
-438 -607 619 0
-438 -608 640 0
-438 -609 661 0
-439 -610 241 0
-439 -611 262 0
-439 -612 283 0
-439 -613 304 0
-439 -614 325 0
-439 -615 346 0
-439 -616 367 0
-439 -617 388 0
-439 -618 409 0
-439 -619 430 0
-439 -620 451 0
-439 -621 472 0
-439 -622 493 0
-439 -623 514 0
-439 -624 535 0
-439 -625 556 0
-439 -626 577 0
-439 -627 598 0
-439 -628 619 0
-439 -629 640 0
-439 -630 661 0
-440 -631 241 0
-440 -632 262 0
-440 -633 283 0
-440 -634 304 0
-440 -635 325 0
-440 -636 346 0
-440 -637 367 0
-440 -638 388 0
-440 -639 409 0
-440 -640 430 0
-440 -641 451 0
-440 -642 472 0
-440 -643 493 0
-440 -644 514 0
-440 -645 535 0
-440 -646 556 0
-440 -647 577 0
-440 -648 598 0
-440 -649 619 0
-440 -650 640 0
-440 -651 661 0
-441 -652 241 0
-441 -653 262 0
-441 -654 283 0
-441 -655 304 0
-441 -656 325 0
-441 -657 346 0
-441 -658 367 0
-441 -659 388 0
-441 -660 409 0
-441 -661 430 0
-441 -662 451 0
-441 -663 472 0
-441 -664 493 0
-441 -665 514 0
-441 -666 535 0
-441 -667 556 0
-441 -668 577 0
-441 -669 598 0
-441 -670 619 0
-441 -671 640 0
-441 -672 661 0
-442 -232 242 0
-442 -233 263 0
-442 -234 284 0
-442 -235 305 0
-442 -236 326 0
-442 -237 347 0
-442 -238 368 0
-442 -239 389 0
-442 -240 410 0
-442 -241 431 0
-442 -242 452 0
-442 -243 473 0
-442 -244 494 0
-442 -245 515 0
-442 -246 536 0
-442 -247 557 0
-442 -248 578 0
-442 -249 599 0
-442 -250 620 0
-442 -251 641 0
-442 -252 662 0
-443 -253 242 0
-443 -254 263 0
-443 -255 284 0
-443 -256 305 0
-443 -257 326 0
-443 -258 347 0
-443 -259 368 0
-443 -260 389 0
-443 -261 410 0
-443 -262 431 0
-443 -263 452 0
-443 -264 473 0
-443 -265 494 0
-443 -266 515 0
-443 -267 536 0
-443 -268 557 0
-443 -269 578 0
-443 -270 599 0
-443 -271 620 0
-443 -272 641 0
-443 -273 662 0
-444 -274 242 0
-444 -275 263 0
-444 -276 284 0
-444 -277 305 0
-444 -278 326 0
-444 -279 347 0
-444 -280 368 0
-444 -281 389 0
-444 -282 410 0
-444 -283 431 0
-444 -284 452 0
-444 -285 473 0
-444 -286 494 0
-444 -287 515 0
-444 -288 536 0
-444 -289 557 0
-444 -290 578 0
-444 -291 599 0
-444 -292 620 0
-444 -293 641 0
-444 -294 662 0
-445 -295 242 0
-445 -296 263 0
-445 -297 284 0
-445 -298 305 0
-445 -299 326 0
-445 -300 347 0
-445 -301 368 0
-445 -302 389 0
-445 -303 410 0
-445 -304 431 0
-445 -305 452 0
-445 -306 473 0
-445 -307 494 0
-445 -308 515 0
-445 -309 536 0
-445 -310 557 0
-445 -311 578 0
-445 -312 599 0
-445 -313 620 0
-445 -314 641 0
-445 -315 662 0
-446 -316 242 0
-446 -317 263 0
-446 -318 284 0
-446 -319 305 0
-446 -320 326 0
-446 -321 347 0
-446 -322 368 0
-446 -323 389 0
-446 -324 410 0
-446 -325 431 0
-446 -326 452 0
-446 -327 473 0
-446 -328 494 0
-446 -329 515 0
-446 -330 536 0
-446 -331 557 0
-446 -332 578 0
-446 -333 599 0
-446 -334 620 0
-446 -335 641 0
-446 -336 662 0
-447 -337 242 0
-447 -338 263 0
-447 -339 284 0
-447 -340 305 0
-447 -341 326 0
-447 -342 347 0
-447 -343 368 0
-447 -344 389 0
-447 -345 410 0
-447 -346 431 0
-447 -347 452 0
-447 -348 473 0
-447 -349 494 0
-447 -350 515 0
-447 -351 536 0
-447 -352 557 0
-447 -353 578 0
-447 -354 599 0
-447 -355 620 0
-447 -356 641 0
-447 -357 662 0
-448 -358 242 0
-448 -359 263 0
-448 -360 284 0
-448 -361 305 0
-448 -362 326 0
-448 -363 347 0
-448 -364 368 0
-448 -365 389 0
-448 -366 410 0
-448 -367 431 0
-448 -368 452 0
-448 -369 473 0
-448 -370 494 0
-448 -371 515 0
-448 -372 536 0
-448 -373 557 0
-448 -374 578 0
-448 -375 599 0
-448 -376 620 0
-448 -377 641 0
-448 -378 662 0
-449 -379 242 0
-449 -380 263 0
-449 -381 284 0
-449 -382 305 0
-449 -383 326 0
-449 -384 347 0
-449 -385 368 0
-449 -386 389 0
-449 -387 410 0
-449 -388 431 0
-449 -389 452 0
-449 -390 473 0
-449 -391 494 0
-449 -392 515 0
-449 -393 536 0
-449 -394 557 0
-449 -395 578 0
-449 -396 599 0
-449 -397 620 0
-449 -398 641 0
-449 -399 662 0
-450 -400 242 0
-450 -401 263 0
-450 -402 284 0
-450 -403 305 0
-450 -404 326 0
-450 -405 347 0
-450 -406 368 0
-450 -407 389 0
-450 -408 410 0
-450 -409 431 0
-450 -410 452 0
-450 -411 473 0
-450 -412 494 0
-450 -413 515 0
-450 -414 536 0
-450 -415 557 0
-450 -416 578 0
-450 -417 599 0
-450 -418 620 0
-450 -419 641 0
-450 -420 662 0
-451 -421 242 0
-451 -422 263 0
-451 -423 284 0
-451 -424 305 0
-451 -425 326 0
-451 -426 347 0
-451 -427 368 0
-451 -428 389 0
-451 -429 410 0
-451 -430 431 0
-451 -431 452 0
-451 -432 473 0
-451 -433 494 0
-451 -434 515 0
-451 -435 536 0
-451 -436 557 0
-451 -437 578 0
-451 -438 599 0
-451 -439 620 0
-451 -440 641 0
-451 -441 662 0
-452 -442 242 0
-452 -443 263 0
-452 -444 284 0
-452 -445 305 0
-452 -446 326 0
-452 -447 347 0
-452 -448 368 0
-452 -449 389 0
-452 -450 410 0
-452 -451 431 0
-452 -452 452 0
-452 -453 473 0
-452 -454 494 0
-452 -455 515 0
-452 -456 536 0
-452 -457 557 0
-452 -458 578 0
-452 -459 599 0
-452 -460 620 0
-452 -461 641 0
-452 -462 662 0
-453 -463 242 0
-453 -464 263 0
-453 -465 284 0
-453 -466 305 0
-453 -467 326 0
-453 -468 347 0
-453 -469 368 0
-453 -470 389 0
-453 -471 410 0
-453 -472 431 0
-453 -473 452 0
-453 -474 473 0
-453 -475 494 0
-453 -476 515 0
-453 -477 536 0
-453 -478 557 0
-453 -479 578 0
-453 -480 599 0
-453 -481 620 0
-453 -482 641 0
-453 -483 662 0
-454 -484 242 0
-454 -485 263 0
-454 -486 284 0
-454 -487 305 0
-454 -488 326 0
-454 -489 347 0
-454 -490 368 0
-454 -491 389 0
-454 -492 410 0
-454 -493 431 0
-454 -494 452 0
-454 -495 473 0
-454 -496 494 0
-454 -497 515 0
-454 -498 536 0
-454 -499 557 0
-454 -500 578 0
-454 -501 599 0
-454 -502 620 0
-454 -503 641 0
-454 -504 662 0
-455 -505 242 0
-455 -506 263 0
-455 -507 284 0
-455 -508 305 0
-455 -509 326 0
-455 -510 347 0
-455 -511 368 0
-455 -512 389 0
-455 -513 410 0
-455 -514 431 0
-455 -515 452 0
-455 -516 473 0
-455 -517 494 0
-455 -518 515 0
-455 -519 536 0
-455 -520 557 0
-455 -521 578 0
-455 -522 599 0
-455 -523 620 0
-455 -524 641 0
-455 -525 662 0
-456 -526 242 0
-456 -527 263 0
-456 -528 284 0
-456 -529 305 0
-456 -530 326 0
-456 -531 347 0
-456 -532 368 0
-456 -533 389 0
-456 -534 410 0
-456 -535 431 0
-456 -536 452 0
-456 -537 473 0
-456 -538 494 0
-456 -539 515 0
-456 -540 536 0
-456 -541 557 0
-456 -542 578 0
-456 -543 599 0
-456 -544 620 0
-456 -545 641 0
-456 -546 662 0
-457 -547 242 0
-457 -548 263 0
-457 -549 284 0
-457 -550 305 0
-457 -551 326 0
-457 -552 347 0
-457 -553 368 0
-457 -554 389 0
-457 -555 410 0
-457 -556 431 0
-457 -557 452 0
-457 -558 473 0
-457 -559 494 0
-457 -560 515 0
-457 -561 536 0
-457 -562 557 0
-457 -563 578 0
-457 -564 599 0
-457 -565 620 0
-457 -566 641 0
-457 -567 662 0
-458 -568 242 0
-458 -569 263 0
-458 -570 284 0
-458 -571 305 0
-458 -572 326 0
-458 -573 347 0
-458 -574 368 0
-458 -575 389 0
-458 -576 410 0
-458 -577 431 0
-458 -578 452 0
-458 -579 473 0
-458 -580 494 0
-458 -581 515 0
-458 -582 536 0
-458 -583 557 0
-458 -584 578 0
-458 -585 599 0
-458 -586 620 0
-458 -587 641 0
-458 -588 662 0
-459 -589 242 0
-459 -590 263 0
-459 -591 284 0
-459 -592 305 0
-459 -593 326 0
-459 -594 347 0
-459 -595 368 0
-459 -596 389 0
-459 -597 410 0
-459 -598 431 0
-459 -599 452 0
-459 -600 473 0
-459 -601 494 0
-459 -602 515 0
-459 -603 536 0
-459 -604 557 0
-459 -605 578 0
-459 -606 599 0
-459 -607 620 0
-459 -608 641 0
-459 -609 662 0
-460 -610 242 0
-460 -611 263 0
-460 -612 284 0
-460 -613 305 0
-460 -614 326 0
-460 -615 347 0
-460 -616 368 0
-460 -617 389 0
-460 -618 410 0
-460 -619 431 0
-460 -620 452 0
-460 -621 473 0
-460 -622 494 0
-460 -623 515 0
-460 -624 536 0
-460 -625 557 0
-460 -626 578 0
-460 -627 599 0
-460 -628 620 0
-460 -629 641 0
-460 -630 662 0
-461 -631 242 0
-461 -632 263 0
-461 -633 284 0
-461 -634 305 0
-461 -635 326 0
-461 -636 347 0
-461 -637 368 0
-461 -638 389 0
-461 -639 410 0
-461 -640 431 0
-461 -641 452 0
-461 -642 473 0
-461 -643 494 0
-461 -644 515 0
-461 -645 536 0
-461 -646 557 0
-461 -647 578 0
-461 -648 599 0
-461 -649 620 0
-461 -650 641 0
-461 -651 662 0
-462 -652 242 0
-462 -653 263 0
-462 -654 284 0
-462 -655 305 0
-462 -656 326 0
-462 -657 347 0
-462 -658 368 0
-462 -659 389 0
-462 -660 410 0
-462 -661 431 0
-462 -662 452 0
-462 -663 473 0
-462 -664 494 0
-462 -665 515 0
-462 -666 536 0
-462 -667 557 0
-462 -668 578 0
-462 -669 599 0
-462 -670 620 0
-462 -671 641 0
-462 -672 662 0
-463 -232 243 0
-463 -233 264 0
-463 -234 285 0
-463 -235 306 0
-463 -236 327 0
-463 -237 348 0
-463 -238 369 0
-463 -239 390 0
-463 -240 411 0
-463 -241 432 0
-463 -242 453 0
-463 -243 474 0
-463 -244 495 0
-463 -245 516 0
-463 -246 537 0
-463 -247 558 0
-463 -248 579 0
-463 -249 600 0
-463 -250 621 0
-463 -251 642 0
-463 -252 663 0
-464 -253 243 0
-464 -254 264 0
-464 -255 285 0
-464 -256 306 0
-464 -257 327 0
-464 -258 348 0
-464 -259 369 0
-464 -260 390 0
-464 -261 411 0
-464 -262 432 0
-464 -263 453 0
-464 -264 474 0
-464 -265 495 0
-464 -266 516 0
-464 -267 537 0
-464 -268 558 0
-464 -269 579 0
-464 -270 600 0
-464 -271 621 0
-464 -272 642 0
-464 -273 663 0
-465 -274 243 0
-465 -275 264 0
-465 -276 285 0
-465 -277 306 0
-465 -278 327 0
-465 -279 348 0
-465 -280 369 0
-465 -281 390 0
-465 -282 411 0
-465 -283 432 0
-465 -284 453 0
-465 -285 474 0
-465 -286 495 0
-465 -287 516 0
-465 -288 537 0
-465 -289 558 0
-465 -290 579 0
-465 -291 600 0
-465 -292 621 0
-465 -293 642 0
-465 -294 663 0
-466 -295 243 0
-466 -296 264 0
-466 -297 285 0
-466 -298 306 0
-466 -299 327 0
-466 -300 348 0
-466 -301 369 0
-466 -302 390 0
-466 -303 411 0
-466 -304 432 0
-466 -305 453 0
-466 -306 474 0
-466 -307 495 0
-466 -308 516 0
-466 -309 537 0
-466 -310 558 0
-466 -311 579 0
-466 -312 600 0
-466 -313 621 0
-466 -314 642 0
-466 -315 663 0
-467 -316 243 0
-467 -317 264 0
-467 -318 285 0
-467 -319 306 0
-467 -320 327 0
-467 -321 348 0
-467 -322 369 0
-467 -323 390 0
-467 -324 411 0
-467 -325 432 0
-467 -326 453 0
-467 -327 474 0
-467 -328 495 0
-467 -329 516 0
-467 -330 537 0
-467 -331 558 0
-467 -332 579 0
-467 -333 600 0
-467 -334 621 0
-467 -335 642 0
-467 -336 663 0
-468 -337 243 0
-468 -338 264 0
-468 -339 285 0
-468 -340 306 0
-468 -341 327 0
-468 -342 348 0
-468 -343 369 0
-468 -344 390 0
-468 -345 411 0
-468 -346 432 0
-468 -347 453 0
-468 -348 474 0
-468 -349 495 0
-468 -350 516 0
-468 -351 537 0
-468 -352 558 0
-468 -353 579 0
-468 -354 600 0
-468 -355 621 0
-468 -356 642 0
-468 -357 663 0
-469 -358 243 0
-469 -359 264 0
-469 -360 285 0
-469 -361 306 0
-469 -362 327 0
-469 -363 348 0
-469 -364 369 0
-469 -365 390 0
-469 -366 411 0
-469 -367 432 0
-469 -368 453 0
-469 -369 474 0
-469 -370 495 0
-469 -371 516 0
-469 -372 537 0
-469 -373 558 0
-469 -374 579 0
-469 -375 600 0
-469 -376 621 0
-469 -377 642 0
-469 -378 663 0
-470 -379 243 0
-470 -380 264 0
-470 -381 285 0
-470 -382 306 0
-470 -383 327 0
-470 -384 348 0
-470 -385 369 0
-470 -386 390 0
-470 -387 411 0
-470 -388 432 0
-470 -389 453 0
-470 -390 474 0
-470 -391 495 0
-470 -392 516 0
-470 -393 537 0
-470 -394 558 0
-470 -395 579 0
-470 -396 600 0
-470 -397 621 0
-470 -398 642 0
-470 -399 663 0
-471 -400 243 0
-471 -401 264 0
-471 -402 285 0
-471 -403 306 0
-471 -404 327 0
-471 -405 348 0
-471 -406 369 0
-471 -407 390 0
-471 -408 411 0
-471 -409 432 0
-471 -410 453 0
-471 -411 474 0
-471 -412 495 0
-471 -413 516 0
-471 -414 537 0
-471 -415 558 0
-471 -416 579 0
-471 -417 600 0
-471 -418 621 0
-471 -419 642 0
-471 -420 663 0
-472 -421 243 0
-472 -422 264 0
-472 -423 285 0
-472 -424 306 0
-472 -425 327 0
-472 -426 348 0
-472 -427 369 0
-472 -428 390 0
-472 -429 411 0
-472 -430 432 0
-472 -431 453 0
-472 -432 474 0
-472 -433 495 0
-472 -434 516 0
-472 -435 537 0
-472 -436 558 0
-472 -437 579 0
-472 -438 600 0
-472 -439 621 0
-472 -440 642 0
-472 -441 663 0
-473 -442 243 0
-473 -443 264 0
-473 -444 285 0
-473 -445 306 0
-473 -446 327 0
-473 -447 348 0
-473 -448 369 0
-473 -449 390 0
-473 -450 411 0
-473 -451 432 0
-473 -452 453 0
-473 -453 474 0
-473 -454 495 0
-473 -455 516 0
-473 -456 537 0
-473 -457 558 0
-473 -458 579 0
-473 -459 600 0
-473 -460 621 0
-473 -461 642 0
-473 -462 663 0
-474 -463 243 0
-474 -464 264 0
-474 -465 285 0
-474 -466 306 0
-474 -467 327 0
-474 -468 348 0
-474 -469 369 0
-474 -470 390 0
-474 -471 411 0
-474 -472 432 0
-474 -473 453 0
-474 -474 474 0
-474 -475 495 0
-474 -476 516 0
-474 -477 537 0
-474 -478 558 0
-474 -479 579 0
-474 -480 600 0
-474 -481 621 0
-474 -482 642 0
-474 -483 663 0
-475 -484 243 0
-475 -485 264 0
-475 -486 285 0
-475 -487 306 0
-475 -488 327 0
-475 -489 348 0
-475 -490 369 0
-475 -491 390 0
-475 -492 411 0
-475 -493 432 0
-475 -494 453 0
-475 -495 474 0
-475 -496 495 0
-475 -497 516 0
-475 -498 537 0
-475 -499 558 0
-475 -500 579 0
-475 -501 600 0
-475 -502 621 0
-475 -503 642 0
-475 -504 663 0
-476 -505 243 0
-476 -506 264 0
-476 -507 285 0
-476 -508 306 0
-476 -509 327 0
-476 -510 348 0
-476 -511 369 0
-476 -512 390 0
-476 -513 411 0
-476 -514 432 0
-476 -515 453 0
-476 -516 474 0
-476 -517 495 0
-476 -518 516 0
-476 -519 537 0
-476 -520 558 0
-476 -521 579 0
-476 -522 600 0
-476 -523 621 0
-476 -524 642 0
-476 -525 663 0
-477 -526 243 0
-477 -527 264 0
-477 -528 285 0
-477 -529 306 0
-477 -530 327 0
-477 -531 348 0
-477 -532 369 0
-477 -533 390 0
-477 -534 411 0
-477 -535 432 0
-477 -536 453 0
-477 -537 474 0
-477 -538 495 0
-477 -539 516 0
-477 -540 537 0
-477 -541 558 0
-477 -542 579 0
-477 -543 600 0
-477 -544 621 0
-477 -545 642 0
-477 -546 663 0
-478 -547 243 0
-478 -548 264 0
-478 -549 285 0
-478 -550 306 0
-478 -551 327 0
-478 -552 348 0
-478 -553 369 0
-478 -554 390 0
-478 -555 411 0
-478 -556 432 0
-478 -557 453 0
-478 -558 474 0
-478 -559 495 0
-478 -560 516 0
-478 -561 537 0
-478 -562 558 0
-478 -563 579 0
-478 -564 600 0
-478 -565 621 0
-478 -566 642 0
-478 -567 663 0
-479 -568 243 0
-479 -569 264 0
-479 -570 285 0
-479 -571 306 0
-479 -572 327 0
-479 -573 348 0
-479 -574 369 0
-479 -575 390 0
-479 -576 411 0
-479 -577 432 0
-479 -578 453 0
-479 -579 474 0
-479 -580 495 0
-479 -581 516 0
-479 -582 537 0
-479 -583 558 0
-479 -584 579 0
-479 -585 600 0
-479 -586 621 0
-479 -587 642 0
-479 -588 663 0
-480 -589 243 0
-480 -590 264 0
-480 -591 285 0
-480 -592 306 0
-480 -593 327 0
-480 -594 348 0
-480 -595 369 0
-480 -596 390 0
-480 -597 411 0
-480 -598 432 0
-480 -599 453 0
-480 -600 474 0
-480 -601 495 0
-480 -602 516 0
-480 -603 537 0
-480 -604 558 0
-480 -605 579 0
-480 -606 600 0
-480 -607 621 0
-480 -608 642 0
-480 -609 663 0
-481 -610 243 0
-481 -611 264 0
-481 -612 285 0
-481 -613 306 0
-481 -614 327 0
-481 -615 348 0
-481 -616 369 0
-481 -617 390 0
-481 -618 411 0
-481 -619 432 0
-481 -620 453 0
-481 -621 474 0
-481 -622 495 0
-481 -623 516 0
-481 -624 537 0
-481 -625 558 0
-481 -626 579 0
-481 -627 600 0
-481 -628 621 0
-481 -629 642 0
-481 -630 663 0
-482 -631 243 0
-482 -632 264 0
-482 -633 285 0
-482 -634 306 0
-482 -635 327 0
-482 -636 348 0
-482 -637 369 0
-482 -638 390 0
-482 -639 411 0
-482 -640 432 0
-482 -641 453 0
-482 -642 474 0
-482 -643 495 0
-482 -644 516 0
-482 -645 537 0
-482 -646 558 0
-482 -647 579 0
-482 -648 600 0
-482 -649 621 0
-482 -650 642 0
-482 -651 663 0
-483 -652 243 0
-483 -653 264 0
-483 -654 285 0
-483 -655 306 0
-483 -656 327 0
-483 -657 348 0
-483 -658 369 0
-483 -659 390 0
-483 -660 411 0
-483 -661 432 0
-483 -662 453 0
-483 -663 474 0
-483 -664 495 0
-483 -665 516 0
-483 -666 537 0
-483 -667 558 0
-483 -668 579 0
-483 -669 600 0
-483 -670 621 0
-483 -671 642 0
-483 -672 663 0
-484 -232 244 0
-484 -233 265 0
-484 -234 286 0
-484 -235 307 0
-484 -236 328 0
-484 -237 349 0
-484 -238 370 0
-484 -239 391 0
-484 -240 412 0
-484 -241 433 0
-484 -242 454 0
-484 -243 475 0
-484 -244 496 0
-484 -245 517 0
-484 -246 538 0
-484 -247 559 0
-484 -248 580 0
-484 -249 601 0
-484 -250 622 0
-484 -251 643 0
-484 -252 664 0
-485 -253 244 0
-485 -254 265 0
-485 -255 286 0
-485 -256 307 0
-485 -257 328 0
-485 -258 349 0
-485 -259 370 0
-485 -260 391 0
-485 -261 412 0
-485 -262 433 0
-485 -263 454 0
-485 -264 475 0
-485 -265 496 0
-485 -266 517 0
-485 -267 538 0
-485 -268 559 0
-485 -269 580 0
-485 -270 601 0
-485 -271 622 0
-485 -272 643 0
-485 -273 664 0
-486 -274 244 0
-486 -275 265 0
-486 -276 286 0
-486 -277 307 0
-486 -278 328 0
-486 -279 349 0
-486 -280 370 0
-486 -281 391 0
-486 -282 412 0
-486 -283 433 0
-486 -284 454 0
-486 -285 475 0
-486 -286 496 0
-486 -287 517 0
-486 -288 538 0
-486 -289 559 0
-486 -290 580 0
-486 -291 601 0
-486 -292 622 0
-486 -293 643 0
-486 -294 664 0
-487 -295 244 0
-487 -296 265 0
-487 -297 286 0
-487 -298 307 0
-487 -299 328 0
-487 -300 349 0
-487 -301 370 0
-487 -302 391 0
-487 -303 412 0
-487 -304 433 0
-487 -305 454 0
-487 -306 475 0
-487 -307 496 0
-487 -308 517 0
-487 -309 538 0
-487 -310 559 0
-487 -311 580 0
-487 -312 601 0
-487 -313 622 0
-487 -314 643 0
-487 -315 664 0
-488 -316 244 0
-488 -317 265 0
-488 -318 286 0
-488 -319 307 0
-488 -320 328 0
-488 -321 349 0
-488 -322 370 0
-488 -323 391 0
-488 -324 412 0
-488 -325 433 0
-488 -326 454 0
-488 -327 475 0
-488 -328 496 0
-488 -329 517 0
-488 -330 538 0
-488 -331 559 0
-488 -332 580 0
-488 -333 601 0
-488 -334 622 0
-488 -335 643 0
-488 -336 664 0
-489 -337 244 0
-489 -338 265 0
-489 -339 286 0
-489 -340 307 0
-489 -341 328 0
-489 -342 349 0
-489 -343 370 0
-489 -344 391 0
-489 -345 412 0
-489 -346 433 0
-489 -347 454 0
-489 -348 475 0
-489 -349 496 0
-489 -350 517 0
-489 -351 538 0
-489 -352 559 0
-489 -353 580 0
-489 -354 601 0
-489 -355 622 0
-489 -356 643 0
-489 -357 664 0
-490 -358 244 0
-490 -359 265 0
-490 -360 286 0
-490 -361 307 0
-490 -362 328 0
-490 -363 349 0
-490 -364 370 0
-490 -365 391 0
-490 -366 412 0
-490 -367 433 0
-490 -368 454 0
-490 -369 475 0
-490 -370 496 0
-490 -371 517 0
-490 -372 538 0
-490 -373 559 0
-490 -374 580 0
-490 -375 601 0
-490 -376 622 0
-490 -377 643 0
-490 -378 664 0
-491 -379 244 0
-491 -380 265 0
-491 -381 286 0
-491 -382 307 0
-491 -383 328 0
-491 -384 349 0
-491 -385 370 0
-491 -386 391 0
-491 -387 412 0
-491 -388 433 0
-491 -389 454 0
-491 -390 475 0
-491 -391 496 0
-491 -392 517 0
-491 -393 538 0
-491 -394 559 0
-491 -395 580 0
-491 -396 601 0
-491 -397 622 0
-491 -398 643 0
-491 -399 664 0
-492 -400 244 0
-492 -401 265 0
-492 -402 286 0
-492 -403 307 0
-492 -404 328 0
-492 -405 349 0
-492 -406 370 0
-492 -407 391 0
-492 -408 412 0
-492 -409 433 0
-492 -410 454 0
-492 -411 475 0
-492 -412 496 0
-492 -413 517 0
-492 -414 538 0
-492 -415 559 0
-492 -416 580 0
-492 -417 601 0
-492 -418 622 0
-492 -419 643 0
-492 -420 664 0
-493 -421 244 0
-493 -422 265 0
-493 -423 286 0
-493 -424 307 0
-493 -425 328 0
-493 -426 349 0
-493 -427 370 0
-493 -428 391 0
-493 -429 412 0
-493 -430 433 0
-493 -431 454 0
-493 -432 475 0
-493 -433 496 0
-493 -434 517 0
-493 -435 538 0
-493 -436 559 0
-493 -437 580 0
-493 -438 601 0
-493 -439 622 0
-493 -440 643 0
-493 -441 664 0
-494 -442 244 0
-494 -443 265 0
-494 -444 286 0
-494 -445 307 0
-494 -446 328 0
-494 -447 349 0
-494 -448 370 0
-494 -449 391 0
-494 -450 412 0
-494 -451 433 0
-494 -452 454 0
-494 -453 475 0
-494 -454 496 0
-494 -455 517 0
-494 -456 538 0
-494 -457 559 0
-494 -458 580 0
-494 -459 601 0
-494 -460 622 0
-494 -461 643 0
-494 -462 664 0
-495 -463 244 0
-495 -464 265 0
-495 -465 286 0
-495 -466 307 0
-495 -467 328 0
-495 -468 349 0
-495 -469 370 0
-495 -470 391 0
-495 -471 412 0
-495 -472 433 0
-495 -473 454 0
-495 -474 475 0
-495 -475 496 0
-495 -476 517 0
-495 -477 538 0
-495 -478 559 0
-495 -479 580 0
-495 -480 601 0
-495 -481 622 0
-495 -482 643 0
-495 -483 664 0
-496 -484 244 0
-496 -485 265 0
-496 -486 286 0
-496 -487 307 0
-496 -488 328 0
-496 -489 349 0
-496 -490 370 0
-496 -491 391 0
-496 -492 412 0
-496 -493 433 0
-496 -494 454 0
-496 -495 475 0
-496 -496 496 0
-496 -497 517 0
-496 -498 538 0
-496 -499 559 0
-496 -500 580 0
-496 -501 601 0
-496 -502 622 0
-496 -503 643 0
-496 -504 664 0
-497 -505 244 0
-497 -506 265 0
-497 -507 286 0
-497 -508 307 0
-497 -509 328 0
-497 -510 349 0
-497 -511 370 0
-497 -512 391 0
-497 -513 412 0
-497 -514 433 0
-497 -515 454 0
-497 -516 475 0
-497 -517 496 0
-497 -518 517 0
-497 -519 538 0
-497 -520 559 0
-497 -521 580 0
-497 -522 601 0
-497 -523 622 0
-497 -524 643 0
-497 -525 664 0
-498 -526 244 0
-498 -527 265 0
-498 -528 286 0
-498 -529 307 0
-498 -530 328 0
-498 -531 349 0
-498 -532 370 0
-498 -533 391 0
-498 -534 412 0
-498 -535 433 0
-498 -536 454 0
-498 -537 475 0
-498 -538 496 0
-498 -539 517 0
-498 -540 538 0
-498 -541 559 0
-498 -542 580 0
-498 -543 601 0
-498 -544 622 0
-498 -545 643 0
-498 -546 664 0
-499 -547 244 0
-499 -548 265 0
-499 -549 286 0
-499 -550 307 0
-499 -551 328 0
-499 -552 349 0
-499 -553 370 0
-499 -554 391 0
-499 -555 412 0
-499 -556 433 0
-499 -557 454 0
-499 -558 475 0
-499 -559 496 0
-499 -560 517 0
-499 -561 538 0
-499 -562 559 0
-499 -563 580 0
-499 -564 601 0
-499 -565 622 0
-499 -566 643 0
-499 -567 664 0
-500 -568 244 0
-500 -569 265 0
-500 -570 286 0
-500 -571 307 0
-500 -572 328 0
-500 -573 349 0
-500 -574 370 0
-500 -575 391 0
-500 -576 412 0
-500 -577 433 0
-500 -578 454 0
-500 -579 475 0
-500 -580 496 0
-500 -581 517 0
-500 -582 538 0
-500 -583 559 0
-500 -584 580 0
-500 -585 601 0
-500 -586 622 0
-500 -587 643 0
-500 -588 664 0
-501 -589 244 0
-501 -590 265 0
-501 -591 286 0
-501 -592 307 0
-501 -593 328 0
-501 -594 349 0
-501 -595 370 0
-501 -596 391 0
-501 -597 412 0
-501 -598 433 0
-501 -599 454 0
-501 -600 475 0
-501 -601 496 0
-501 -602 517 0
-501 -603 538 0
-501 -604 559 0
-501 -605 580 0
-501 -606 601 0
-501 -607 622 0
-501 -608 643 0
-501 -609 664 0
-502 -610 244 0
-502 -611 265 0
-502 -612 286 0
-502 -613 307 0
-502 -614 328 0
-502 -615 349 0
-502 -616 370 0
-502 -617 391 0
-502 -618 412 0
-502 -619 433 0
-502 -620 454 0
-502 -621 475 0
-502 -622 496 0
-502 -623 517 0
-502 -624 538 0
-502 -625 559 0
-502 -626 580 0
-502 -627 601 0
-502 -628 622 0
-502 -629 643 0
-502 -630 664 0
-503 -631 244 0
-503 -632 265 0
-503 -633 286 0
-503 -634 307 0
-503 -635 328 0
-503 -636 349 0
-503 -637 370 0
-503 -638 391 0
-503 -639 412 0
-503 -640 433 0
-503 -641 454 0
-503 -642 475 0
-503 -643 496 0
-503 -644 517 0
-503 -645 538 0
-503 -646 559 0
-503 -647 580 0
-503 -648 601 0
-503 -649 622 0
-503 -650 643 0
-503 -651 664 0
-504 -652 244 0
-504 -653 265 0
-504 -654 286 0
-504 -655 307 0
-504 -656 328 0
-504 -657 349 0
-504 -658 370 0
-504 -659 391 0
-504 -660 412 0
-504 -661 433 0
-504 -662 454 0
-504 -663 475 0
-504 -664 496 0
-504 -665 517 0
-504 -666 538 0
-504 -667 559 0
-504 -668 580 0
-504 -669 601 0
-504 -670 622 0
-504 -671 643 0
-504 -672 664 0
-505 -232 245 0
-505 -233 266 0
-505 -234 287 0
-505 -235 308 0
-505 -236 329 0
-505 -237 350 0
-505 -238 371 0
-505 -239 392 0
-505 -240 413 0
-505 -241 434 0
-505 -242 455 0
-505 -243 476 0
-505 -244 497 0
-505 -245 518 0
-505 -246 539 0
-505 -247 560 0
-505 -248 581 0
-505 -249 602 0
-505 -250 623 0
-505 -251 644 0
-505 -252 665 0
-506 -253 245 0
-506 -254 266 0
-506 -255 287 0
-506 -256 308 0
-506 -257 329 0
-506 -258 350 0
-506 -259 371 0
-506 -260 392 0
-506 -261 413 0
-506 -262 434 0
-506 -263 455 0
-506 -264 476 0
-506 -265 497 0
-506 -266 518 0
-506 -267 539 0
-506 -268 560 0
-506 -269 581 0
-506 -270 602 0
-506 -271 623 0
-506 -272 644 0
-506 -273 665 0
-507 -274 245 0
-507 -275 266 0
-507 -276 287 0
-507 -277 308 0
-507 -278 329 0
-507 -279 350 0
-507 -280 371 0
-507 -281 392 0
-507 -282 413 0
-507 -283 434 0
-507 -284 455 0
-507 -285 476 0
-507 -286 497 0
-507 -287 518 0
-507 -288 539 0
-507 -289 560 0
-507 -290 581 0
-507 -291 602 0
-507 -292 623 0
-507 -293 644 0
-507 -294 665 0
-508 -295 245 0
-508 -296 266 0
-508 -297 287 0
-508 -298 308 0
-508 -299 329 0
-508 -300 350 0
-508 -301 371 0
-508 -302 392 0
-508 -303 413 0
-508 -304 434 0
-508 -305 455 0
-508 -306 476 0
-508 -307 497 0
-508 -308 518 0
-508 -309 539 0
-508 -310 560 0
-508 -311 581 0
-508 -312 602 0
-508 -313 623 0
-508 -314 644 0
-508 -315 665 0
-509 -316 245 0
-509 -317 266 0
-509 -318 287 0
-509 -319 308 0
-509 -320 329 0
-509 -321 350 0
-509 -322 371 0
-509 -323 392 0
-509 -324 413 0
-509 -325 434 0
-509 -326 455 0
-509 -327 476 0
-509 -328 497 0
-509 -329 518 0
-509 -330 539 0
-509 -331 560 0
-509 -332 581 0
-509 -333 602 0
-509 -334 623 0
-509 -335 644 0
-509 -336 665 0
-510 -337 245 0
-510 -338 266 0
-510 -339 287 0
-510 -340 308 0
-510 -341 329 0
-510 -342 350 0
-510 -343 371 0
-510 -344 392 0
-510 -345 413 0
-510 -346 434 0
-510 -347 455 0
-510 -348 476 0
-510 -349 497 0
-510 -350 518 0
-510 -351 539 0
-510 -352 560 0
-510 -353 581 0
-510 -354 602 0
-510 -355 623 0
-510 -356 644 0
-510 -357 665 0
-511 -358 245 0
-511 -359 266 0
-511 -360 287 0
-511 -361 308 0
-511 -362 329 0
-511 -363 350 0
-511 -364 371 0
-511 -365 392 0
-511 -366 413 0
-511 -367 434 0
-511 -368 455 0
-511 -369 476 0
-511 -370 497 0
-511 -371 518 0
-511 -372 539 0
-511 -373 560 0
-511 -374 581 0
-511 -375 602 0
-511 -376 623 0
-511 -377 644 0
-511 -378 665 0
-512 -379 245 0
-512 -380 266 0
-512 -381 287 0
-512 -382 308 0
-512 -383 329 0
-512 -384 350 0
-512 -385 371 0
-512 -386 392 0
-512 -387 413 0
-512 -388 434 0
-512 -389 455 0
-512 -390 476 0
-512 -391 497 0
-512 -392 518 0
-512 -393 539 0
-512 -394 560 0
-512 -395 581 0
-512 -396 602 0
-512 -397 623 0
-512 -398 644 0
-512 -399 665 0
-513 -400 245 0
-513 -401 266 0
-513 -402 287 0
-513 -403 308 0
-513 -404 329 0
-513 -405 350 0
-513 -406 371 0
-513 -407 392 0
-513 -408 413 0
-513 -409 434 0
-513 -410 455 0
-513 -411 476 0
-513 -412 497 0
-513 -413 518 0
-513 -414 539 0
-513 -415 560 0
-513 -416 581 0
-513 -417 602 0
-513 -418 623 0
-513 -419 644 0
-513 -420 665 0
-514 -421 245 0
-514 -422 266 0
-514 -423 287 0
-514 -424 308 0
-514 -425 329 0
-514 -426 350 0
-514 -427 371 0
-514 -428 392 0
-514 -429 413 0
-514 -430 434 0
-514 -431 455 0
-514 -432 476 0
-514 -433 497 0
-514 -434 518 0
-514 -435 539 0
-514 -436 560 0
-514 -437 581 0
-514 -438 602 0
-514 -439 623 0
-514 -440 644 0
-514 -441 665 0
-515 -442 245 0
-515 -443 266 0
-515 -444 287 0
-515 -445 308 0
-515 -446 329 0
-515 -447 350 0
-515 -448 371 0
-515 -449 392 0
-515 -450 413 0
-515 -451 434 0
-515 -452 455 0
-515 -453 476 0
-515 -454 497 0
-515 -455 518 0
-515 -456 539 0
-515 -457 560 0
-515 -458 581 0
-515 -459 602 0
-515 -460 623 0
-515 -461 644 0
-515 -462 665 0
-516 -463 245 0
-516 -464 266 0
-516 -465 287 0
-516 -466 308 0
-516 -467 329 0
-516 -468 350 0
-516 -469 371 0
-516 -470 392 0
-516 -471 413 0
-516 -472 434 0
-516 -473 455 0
-516 -474 476 0
-516 -475 497 0
-516 -476 518 0
-516 -477 539 0
-516 -478 560 0
-516 -479 581 0
-516 -480 602 0
-516 -481 623 0
-516 -482 644 0
-516 -483 665 0
-517 -484 245 0
-517 -485 266 0
-517 -486 287 0
-517 -487 308 0
-517 -488 329 0
-517 -489 350 0
-517 -490 371 0
-517 -491 392 0
-517 -492 413 0
-517 -493 434 0
-517 -494 455 0
-517 -495 476 0
-517 -496 497 0
-517 -497 518 0
-517 -498 539 0
-517 -499 560 0
-517 -500 581 0
-517 -501 602 0
-517 -502 623 0
-517 -503 644 0
-517 -504 665 0
-518 -505 245 0
-518 -506 266 0
-518 -507 287 0
-518 -508 308 0
-518 -509 329 0
-518 -510 350 0
-518 -511 371 0
-518 -512 392 0
-518 -513 413 0
-518 -514 434 0
-518 -515 455 0
-518 -516 476 0
-518 -517 497 0
-518 -518 518 0
-518 -519 539 0
-518 -520 560 0
-518 -521 581 0
-518 -522 602 0
-518 -523 623 0
-518 -524 644 0
-518 -525 665 0
-519 -526 245 0
-519 -527 266 0
-519 -528 287 0
-519 -529 308 0
-519 -530 329 0
-519 -531 350 0
-519 -532 371 0
-519 -533 392 0
-519 -534 413 0
-519 -535 434 0
-519 -536 455 0
-519 -537 476 0
-519 -538 497 0
-519 -539 518 0
-519 -540 539 0
-519 -541 560 0
-519 -542 581 0
-519 -543 602 0
-519 -544 623 0
-519 -545 644 0
-519 -546 665 0
-520 -547 245 0
-520 -548 266 0
-520 -549 287 0
-520 -550 308 0
-520 -551 329 0
-520 -552 350 0
-520 -553 371 0
-520 -554 392 0
-520 -555 413 0
-520 -556 434 0
-520 -557 455 0
-520 -558 476 0
-520 -559 497 0
-520 -560 518 0
-520 -561 539 0
-520 -562 560 0
-520 -563 581 0
-520 -564 602 0
-520 -565 623 0
-520 -566 644 0
-520 -567 665 0
-521 -568 245 0
-521 -569 266 0
-521 -570 287 0
-521 -571 308 0
-521 -572 329 0
-521 -573 350 0
-521 -574 371 0
-521 -575 392 0
-521 -576 413 0
-521 -577 434 0
-521 -578 455 0
-521 -579 476 0
-521 -580 497 0
-521 -581 518 0
-521 -582 539 0
-521 -583 560 0
-521 -584 581 0
-521 -585 602 0
-521 -586 623 0
-521 -587 644 0
-521 -588 665 0
-522 -589 245 0
-522 -590 266 0
-522 -591 287 0
-522 -592 308 0
-522 -593 329 0
-522 -594 350 0
-522 -595 371 0
-522 -596 392 0
-522 -597 413 0
-522 -598 434 0
-522 -599 455 0
-522 -600 476 0
-522 -601 497 0
-522 -602 518 0
-522 -603 539 0
-522 -604 560 0
-522 -605 581 0
-522 -606 602 0
-522 -607 623 0
-522 -608 644 0
-522 -609 665 0
-523 -610 245 0
-523 -611 266 0
-523 -612 287 0
-523 -613 308 0
-523 -614 329 0
-523 -615 350 0
-523 -616 371 0
-523 -617 392 0
-523 -618 413 0
-523 -619 434 0
-523 -620 455 0
-523 -621 476 0
-523 -622 497 0
-523 -623 518 0
-523 -624 539 0
-523 -625 560 0
-523 -626 581 0
-523 -627 602 0
-523 -628 623 0
-523 -629 644 0
-523 -630 665 0
-524 -631 245 0
-524 -632 266 0
-524 -633 287 0
-524 -634 308 0
-524 -635 329 0
-524 -636 350 0
-524 -637 371 0
-524 -638 392 0
-524 -639 413 0
-524 -640 434 0
-524 -641 455 0
-524 -642 476 0
-524 -643 497 0
-524 -644 518 0
-524 -645 539 0
-524 -646 560 0
-524 -647 581 0
-524 -648 602 0
-524 -649 623 0
-524 -650 644 0
-524 -651 665 0
-525 -652 245 0
-525 -653 266 0
-525 -654 287 0
-525 -655 308 0
-525 -656 329 0
-525 -657 350 0
-525 -658 371 0
-525 -659 392 0
-525 -660 413 0
-525 -661 434 0
-525 -662 455 0
-525 -663 476 0
-525 -664 497 0
-525 -665 518 0
-525 -666 539 0
-525 -667 560 0
-525 -668 581 0
-525 -669 602 0
-525 -670 623 0
-525 -671 644 0
-525 -672 665 0
-526 -232 246 0
-526 -233 267 0
-526 -234 288 0
-526 -235 309 0
-526 -236 330 0
-526 -237 351 0
-526 -238 372 0
-526 -239 393 0
-526 -240 414 0
-526 -241 435 0
-526 -242 456 0
-526 -243 477 0
-526 -244 498 0
-526 -245 519 0
-526 -246 540 0
-526 -247 561 0
-526 -248 582 0
-526 -249 603 0
-526 -250 624 0
-526 -251 645 0
-526 -252 666 0
-527 -253 246 0
-527 -254 267 0
-527 -255 288 0
-527 -256 309 0
-527 -257 330 0
-527 -258 351 0
-527 -259 372 0
-527 -260 393 0
-527 -261 414 0
-527 -262 435 0
-527 -263 456 0
-527 -264 477 0
-527 -265 498 0
-527 -266 519 0
-527 -267 540 0
-527 -268 561 0
-527 -269 582 0
-527 -270 603 0
-527 -271 624 0
-527 -272 645 0
-527 -273 666 0
-528 -274 246 0
-528 -275 267 0
-528 -276 288 0
-528 -277 309 0
-528 -278 330 0
-528 -279 351 0
-528 -280 372 0
-528 -281 393 0
-528 -282 414 0
-528 -283 435 0
-528 -284 456 0
-528 -285 477 0
-528 -286 498 0
-528 -287 519 0
-528 -288 540 0
-528 -289 561 0
-528 -290 582 0
-528 -291 603 0
-528 -292 624 0
-528 -293 645 0
-528 -294 666 0
-529 -295 246 0
-529 -296 267 0
-529 -297 288 0
-529 -298 309 0
-529 -299 330 0
-529 -300 351 0
-529 -301 372 0
-529 -302 393 0
-529 -303 414 0
-529 -304 435 0
-529 -305 456 0
-529 -306 477 0
-529 -307 498 0
-529 -308 519 0
-529 -309 540 0
-529 -310 561 0
-529 -311 582 0
-529 -312 603 0
-529 -313 624 0
-529 -314 645 0
-529 -315 666 0
-530 -316 246 0
-530 -317 267 0
-530 -318 288 0
-530 -319 309 0
-530 -320 330 0
-530 -321 351 0
-530 -322 372 0
-530 -323 393 0
-530 -324 414 0
-530 -325 435 0
-530 -326 456 0
-530 -327 477 0
-530 -328 498 0
-530 -329 519 0
-530 -330 540 0
-530 -331 561 0
-530 -332 582 0
-530 -333 603 0
-530 -334 624 0
-530 -335 645 0
-530 -336 666 0
-531 -337 246 0
-531 -338 267 0
-531 -339 288 0
-531 -340 309 0
-531 -341 330 0
-531 -342 351 0
-531 -343 372 0
-531 -344 393 0
-531 -345 414 0
-531 -346 435 0
-531 -347 456 0
-531 -348 477 0
-531 -349 498 0
-531 -350 519 0
-531 -351 540 0
-531 -352 561 0
-531 -353 582 0
-531 -354 603 0
-531 -355 624 0
-531 -356 645 0
-531 -357 666 0
-532 -358 246 0
-532 -359 267 0
-532 -360 288 0
-532 -361 309 0
-532 -362 330 0
-532 -363 351 0
-532 -364 372 0
-532 -365 393 0
-532 -366 414 0
-532 -367 435 0
-532 -368 456 0
-532 -369 477 0
-532 -370 498 0
-532 -371 519 0
-532 -372 540 0
-532 -373 561 0
-532 -374 582 0
-532 -375 603 0
-532 -376 624 0
-532 -377 645 0
-532 -378 666 0
-533 -379 246 0
-533 -380 267 0
-533 -381 288 0
-533 -382 309 0
-533 -383 330 0
-533 -384 351 0
-533 -385 372 0
-533 -386 393 0
-533 -387 414 0
-533 -388 435 0
-533 -389 456 0
-533 -390 477 0
-533 -391 498 0
-533 -392 519 0
-533 -393 540 0
-533 -394 561 0
-533 -395 582 0
-533 -396 603 0
-533 -397 624 0
-533 -398 645 0
-533 -399 666 0
-534 -400 246 0
-534 -401 267 0
-534 -402 288 0
-534 -403 309 0
-534 -404 330 0
-534 -405 351 0
-534 -406 372 0
-534 -407 393 0
-534 -408 414 0
-534 -409 435 0
-534 -410 456 0
-534 -411 477 0
-534 -412 498 0
-534 -413 519 0
-534 -414 540 0
-534 -415 561 0
-534 -416 582 0
-534 -417 603 0
-534 -418 624 0
-534 -419 645 0
-534 -420 666 0
-535 -421 246 0
-535 -422 267 0
-535 -423 288 0
-535 -424 309 0
-535 -425 330 0
-535 -426 351 0
-535 -427 372 0
-535 -428 393 0
-535 -429 414 0
-535 -430 435 0
-535 -431 456 0
-535 -432 477 0
-535 -433 498 0
-535 -434 519 0
-535 -435 540 0
-535 -436 561 0
-535 -437 582 0
-535 -438 603 0
-535 -439 624 0
-535 -440 645 0
-535 -441 666 0
-536 -442 246 0
-536 -443 267 0
-536 -444 288 0
-536 -445 309 0
-536 -446 330 0
-536 -447 351 0
-536 -448 372 0
-536 -449 393 0
-536 -450 414 0
-536 -451 435 0
-536 -452 456 0
-536 -453 477 0
-536 -454 498 0
-536 -455 519 0
-536 -456 540 0
-536 -457 561 0
-536 -458 582 0
-536 -459 603 0
-536 -460 624 0
-536 -461 645 0
-536 -462 666 0
-537 -463 246 0
-537 -464 267 0
-537 -465 288 0
-537 -466 309 0
-537 -467 330 0
-537 -468 351 0
-537 -469 372 0
-537 -470 393 0
-537 -471 414 0
-537 -472 435 0
-537 -473 456 0
-537 -474 477 0
-537 -475 498 0
-537 -476 519 0
-537 -477 540 0
-537 -478 561 0
-537 -479 582 0
-537 -480 603 0
-537 -481 624 0
-537 -482 645 0
-537 -483 666 0
-538 -484 246 0
-538 -485 267 0
-538 -486 288 0
-538 -487 309 0
-538 -488 330 0
-538 -489 351 0
-538 -490 372 0
-538 -491 393 0
-538 -492 414 0
-538 -493 435 0
-538 -494 456 0
-538 -495 477 0
-538 -496 498 0
-538 -497 519 0
-538 -498 540 0
-538 -499 561 0
-538 -500 582 0
-538 -501 603 0
-538 -502 624 0
-538 -503 645 0
-538 -504 666 0
-539 -505 246 0
-539 -506 267 0
-539 -507 288 0
-539 -508 309 0
-539 -509 330 0
-539 -510 351 0
-539 -511 372 0
-539 -512 393 0
-539 -513 414 0
-539 -514 435 0
-539 -515 456 0
-539 -516 477 0
-539 -517 498 0
-539 -518 519 0
-539 -519 540 0
-539 -520 561 0
-539 -521 582 0
-539 -522 603 0
-539 -523 624 0
-539 -524 645 0
-539 -525 666 0
-540 -526 246 0
-540 -527 267 0
-540 -528 288 0
-540 -529 309 0
-540 -530 330 0
-540 -531 351 0
-540 -532 372 0
-540 -533 393 0
-540 -534 414 0
-540 -535 435 0
-540 -536 456 0
-540 -537 477 0
-540 -538 498 0
-540 -539 519 0
-540 -540 540 0
-540 -541 561 0
-540 -542 582 0
-540 -543 603 0
-540 -544 624 0
-540 -545 645 0
-540 -546 666 0
-541 -547 246 0
-541 -548 267 0
-541 -549 288 0
-541 -550 309 0
-541 -551 330 0
-541 -552 351 0
-541 -553 372 0
-541 -554 393 0
-541 -555 414 0
-541 -556 435 0
-541 -557 456 0
-541 -558 477 0
-541 -559 498 0
-541 -560 519 0
-541 -561 540 0
-541 -562 561 0
-541 -563 582 0
-541 -564 603 0
-541 -565 624 0
-541 -566 645 0
-541 -567 666 0
-542 -568 246 0
-542 -569 267 0
-542 -570 288 0
-542 -571 309 0
-542 -572 330 0
-542 -573 351 0
-542 -574 372 0
-542 -575 393 0
-542 -576 414 0
-542 -577 435 0
-542 -578 456 0
-542 -579 477 0
-542 -580 498 0
-542 -581 519 0
-542 -582 540 0
-542 -583 561 0
-542 -584 582 0
-542 -585 603 0
-542 -586 624 0
-542 -587 645 0
-542 -588 666 0
-543 -589 246 0
-543 -590 267 0
-543 -591 288 0
-543 -592 309 0
-543 -593 330 0
-543 -594 351 0
-543 -595 372 0
-543 -596 393 0
-543 -597 414 0
-543 -598 435 0
-543 -599 456 0
-543 -600 477 0
-543 -601 498 0
-543 -602 519 0
-543 -603 540 0
-543 -604 561 0
-543 -605 582 0
-543 -606 603 0
-543 -607 624 0
-543 -608 645 0
-543 -609 666 0
-544 -610 246 0
-544 -611 267 0
-544 -612 288 0
-544 -613 309 0
-544 -614 330 0
-544 -615 351 0
-544 -616 372 0
-544 -617 393 0
-544 -618 414 0
-544 -619 435 0
-544 -620 456 0
-544 -621 477 0
-544 -622 498 0
-544 -623 519 0
-544 -624 540 0
-544 -625 561 0
-544 -626 582 0
-544 -627 603 0
-544 -628 624 0
-544 -629 645 0
-544 -630 666 0
-545 -631 246 0
-545 -632 267 0
-545 -633 288 0
-545 -634 309 0
-545 -635 330 0
-545 -636 351 0
-545 -637 372 0
-545 -638 393 0
-545 -639 414 0
-545 -640 435 0
-545 -641 456 0
-545 -642 477 0
-545 -643 498 0
-545 -644 519 0
-545 -645 540 0
-545 -646 561 0
-545 -647 582 0
-545 -648 603 0
-545 -649 624 0
-545 -650 645 0
-545 -651 666 0
-546 -652 246 0
-546 -653 267 0
-546 -654 288 0
-546 -655 309 0
-546 -656 330 0
-546 -657 351 0
-546 -658 372 0
-546 -659 393 0
-546 -660 414 0
-546 -661 435 0
-546 -662 456 0
-546 -663 477 0
-546 -664 498 0
-546 -665 519 0
-546 -666 540 0
-546 -667 561 0
-546 -668 582 0
-546 -669 603 0
-546 -670 624 0
-546 -671 645 0
-546 -672 666 0
-547 -232 247 0
-547 -233 268 0
-547 -234 289 0
-547 -235 310 0
-547 -236 331 0
-547 -237 352 0
-547 -238 373 0
-547 -239 394 0
-547 -240 415 0
-547 -241 436 0
-547 -242 457 0
-547 -243 478 0
-547 -244 499 0
-547 -245 520 0
-547 -246 541 0
-547 -247 562 0
-547 -248 583 0
-547 -249 604 0
-547 -250 625 0
-547 -251 646 0
-547 -252 667 0
-548 -253 247 0
-548 -254 268 0
-548 -255 289 0
-548 -256 310 0
-548 -257 331 0
-548 -258 352 0
-548 -259 373 0
-548 -260 394 0
-548 -261 415 0
-548 -262 436 0
-548 -263 457 0
-548 -264 478 0
-548 -265 499 0
-548 -266 520 0
-548 -267 541 0
-548 -268 562 0
-548 -269 583 0
-548 -270 604 0
-548 -271 625 0
-548 -272 646 0
-548 -273 667 0
-549 -274 247 0
-549 -275 268 0
-549 -276 289 0
-549 -277 310 0
-549 -278 331 0
-549 -279 352 0
-549 -280 373 0
-549 -281 394 0
-549 -282 415 0
-549 -283 436 0
-549 -284 457 0
-549 -285 478 0
-549 -286 499 0
-549 -287 520 0
-549 -288 541 0
-549 -289 562 0
-549 -290 583 0
-549 -291 604 0
-549 -292 625 0
-549 -293 646 0
-549 -294 667 0
-550 -295 247 0
-550 -296 268 0
-550 -297 289 0
-550 -298 310 0
-550 -299 331 0
-550 -300 352 0
-550 -301 373 0
-550 -302 394 0
-550 -303 415 0
-550 -304 436 0
-550 -305 457 0
-550 -306 478 0
-550 -307 499 0
-550 -308 520 0
-550 -309 541 0
-550 -310 562 0
-550 -311 583 0
-550 -312 604 0
-550 -313 625 0
-550 -314 646 0
-550 -315 667 0
-551 -316 247 0
-551 -317 268 0
-551 -318 289 0
-551 -319 310 0
-551 -320 331 0
-551 -321 352 0
-551 -322 373 0
-551 -323 394 0
-551 -324 415 0
-551 -325 436 0
-551 -326 457 0
-551 -327 478 0
-551 -328 499 0
-551 -329 520 0
-551 -330 541 0
-551 -331 562 0
-551 -332 583 0
-551 -333 604 0
-551 -334 625 0
-551 -335 646 0
-551 -336 667 0
-552 -337 247 0
-552 -338 268 0
-552 -339 289 0
-552 -340 310 0
-552 -341 331 0
-552 -342 352 0
-552 -343 373 0
-552 -344 394 0
-552 -345 415 0
-552 -346 436 0
-552 -347 457 0
-552 -348 478 0
-552 -349 499 0
-552 -350 520 0
-552 -351 541 0
-552 -352 562 0
-552 -353 583 0
-552 -354 604 0
-552 -355 625 0
-552 -356 646 0
-552 -357 667 0
-553 -358 247 0
-553 -359 268 0
-553 -360 289 0
-553 -361 310 0
-553 -362 331 0
-553 -363 352 0
-553 -364 373 0
-553 -365 394 0
-553 -366 415 0
-553 -367 436 0
-553 -368 457 0
-553 -369 478 0
-553 -370 499 0
-553 -371 520 0
-553 -372 541 0
-553 -373 562 0
-553 -374 583 0
-553 -375 604 0
-553 -376 625 0
-553 -377 646 0
-553 -378 667 0
-554 -379 247 0
-554 -380 268 0
-554 -381 289 0
-554 -382 310 0
-554 -383 331 0
-554 -384 352 0
-554 -385 373 0
-554 -386 394 0
-554 -387 415 0
-554 -388 436 0
-554 -389 457 0
-554 -390 478 0
-554 -391 499 0
-554 -392 520 0
-554 -393 541 0
-554 -394 562 0
-554 -395 583 0
-554 -396 604 0
-554 -397 625 0
-554 -398 646 0
-554 -399 667 0
-555 -400 247 0
-555 -401 268 0
-555 -402 289 0
-555 -403 310 0
-555 -404 331 0
-555 -405 352 0
-555 -406 373 0
-555 -407 394 0
-555 -408 415 0
-555 -409 436 0
-555 -410 457 0
-555 -411 478 0
-555 -412 499 0
-555 -413 520 0
-555 -414 541 0
-555 -415 562 0
-555 -416 583 0
-555 -417 604 0
-555 -418 625 0
-555 -419 646 0
-555 -420 667 0
-556 -421 247 0
-556 -422 268 0
-556 -423 289 0
-556 -424 310 0
-556 -425 331 0
-556 -426 352 0
-556 -427 373 0
-556 -428 394 0
-556 -429 415 0
-556 -430 436 0
-556 -431 457 0
-556 -432 478 0
-556 -433 499 0
-556 -434 520 0
-556 -435 541 0
-556 -436 562 0
-556 -437 583 0
-556 -438 604 0
-556 -439 625 0
-556 -440 646 0
-556 -441 667 0
-557 -442 247 0
-557 -443 268 0
-557 -444 289 0
-557 -445 310 0
-557 -446 331 0
-557 -447 352 0
-557 -448 373 0
-557 -449 394 0
-557 -450 415 0
-557 -451 436 0
-557 -452 457 0
-557 -453 478 0
-557 -454 499 0
-557 -455 520 0
-557 -456 541 0
-557 -457 562 0
-557 -458 583 0
-557 -459 604 0
-557 -460 625 0
-557 -461 646 0
-557 -462 667 0
-558 -463 247 0
-558 -464 268 0
-558 -465 289 0
-558 -466 310 0
-558 -467 331 0
-558 -468 352 0
-558 -469 373 0
-558 -470 394 0
-558 -471 415 0
-558 -472 436 0
-558 -473 457 0
-558 -474 478 0
-558 -475 499 0
-558 -476 520 0
-558 -477 541 0
-558 -478 562 0
-558 -479 583 0
-558 -480 604 0
-558 -481 625 0
-558 -482 646 0
-558 -483 667 0
-559 -484 247 0
-559 -485 268 0
-559 -486 289 0
-559 -487 310 0
-559 -488 331 0
-559 -489 352 0
-559 -490 373 0
-559 -491 394 0
-559 -492 415 0
-559 -493 436 0
-559 -494 457 0
-559 -495 478 0
-559 -496 499 0
-559 -497 520 0
-559 -498 541 0
-559 -499 562 0
-559 -500 583 0
-559 -501 604 0
-559 -502 625 0
-559 -503 646 0
-559 -504 667 0
-560 -505 247 0
-560 -506 268 0
-560 -507 289 0
-560 -508 310 0
-560 -509 331 0
-560 -510 352 0
-560 -511 373 0
-560 -512 394 0
-560 -513 415 0
-560 -514 436 0
-560 -515 457 0
-560 -516 478 0
-560 -517 499 0
-560 -518 520 0
-560 -519 541 0
-560 -520 562 0
-560 -521 583 0
-560 -522 604 0
-560 -523 625 0
-560 -524 646 0
-560 -525 667 0
-561 -526 247 0
-561 -527 268 0
-561 -528 289 0
-561 -529 310 0
-561 -530 331 0
-561 -531 352 0
-561 -532 373 0
-561 -533 394 0
-561 -534 415 0
-561 -535 436 0
-561 -536 457 0
-561 -537 478 0
-561 -538 499 0
-561 -539 520 0
-561 -540 541 0
-561 -541 562 0
-561 -542 583 0
-561 -543 604 0
-561 -544 625 0
-561 -545 646 0
-561 -546 667 0
-562 -547 247 0
-562 -548 268 0
-562 -549 289 0
-562 -550 310 0
-562 -551 331 0
-562 -552 352 0
-562 -553 373 0
-562 -554 394 0
-562 -555 415 0
-562 -556 436 0
-562 -557 457 0
-562 -558 478 0
-562 -559 499 0
-562 -560 520 0
-562 -561 541 0
-562 -562 562 0
-562 -563 583 0
-562 -564 604 0
-562 -565 625 0
-562 -566 646 0
-562 -567 667 0
-563 -568 247 0
-563 -569 268 0
-563 -570 289 0
-563 -571 310 0
-563 -572 331 0
-563 -573 352 0
-563 -574 373 0
-563 -575 394 0
-563 -576 415 0
-563 -577 436 0
-563 -578 457 0
-563 -579 478 0
-563 -580 499 0
-563 -581 520 0
-563 -582 541 0
-563 -583 562 0
-563 -584 583 0
-563 -585 604 0
-563 -586 625 0
-563 -587 646 0
-563 -588 667 0
-564 -589 247 0
-564 -590 268 0
-564 -591 289 0
-564 -592 310 0
-564 -593 331 0
-564 -594 352 0
-564 -595 373 0
-564 -596 394 0
-564 -597 415 0
-564 -598 436 0
-564 -599 457 0
-564 -600 478 0
-564 -601 499 0
-564 -602 520 0
-564 -603 541 0
-564 -604 562 0
-564 -605 583 0
-564 -606 604 0
-564 -607 625 0
-564 -608 646 0
-564 -609 667 0
-565 -610 247 0
-565 -611 268 0
-565 -612 289 0
-565 -613 310 0
-565 -614 331 0
-565 -615 352 0
-565 -616 373 0
-565 -617 394 0
-565 -618 415 0
-565 -619 436 0
-565 -620 457 0
-565 -621 478 0
-565 -622 499 0
-565 -623 520 0
-565 -624 541 0
-565 -625 562 0
-565 -626 583 0
-565 -627 604 0
-565 -628 625 0
-565 -629 646 0
-565 -630 667 0
-566 -631 247 0
-566 -632 268 0
-566 -633 289 0
-566 -634 310 0
-566 -635 331 0
-566 -636 352 0
-566 -637 373 0
-566 -638 394 0
-566 -639 415 0
-566 -640 436 0
-566 -641 457 0
-566 -642 478 0
-566 -643 499 0
-566 -644 520 0
-566 -645 541 0
-566 -646 562 0
-566 -647 583 0
-566 -648 604 0
-566 -649 625 0
-566 -650 646 0
-566 -651 667 0
-567 -652 247 0
-567 -653 268 0
-567 -654 289 0
-567 -655 310 0
-567 -656 331 0
-567 -657 352 0
-567 -658 373 0
-567 -659 394 0
-567 -660 415 0
-567 -661 436 0
-567 -662 457 0
-567 -663 478 0
-567 -664 499 0
-567 -665 520 0
-567 -666 541 0
-567 -667 562 0
-567 -668 583 0
-567 -669 604 0
-567 -670 625 0
-567 -671 646 0
-567 -672 667 0
-568 -232 248 0
-568 -233 269 0
-568 -234 290 0
-568 -235 311 0
-568 -236 332 0
-568 -237 353 0
-568 -238 374 0
-568 -239 395 0
-568 -240 416 0
-568 -241 437 0
-568 -242 458 0
-568 -243 479 0
-568 -244 500 0
-568 -245 521 0
-568 -246 542 0
-568 -247 563 0
-568 -248 584 0
-568 -249 605 0
-568 -250 626 0
-568 -251 647 0
-568 -252 668 0
-569 -253 248 0
-569 -254 269 0
-569 -255 290 0
-569 -256 311 0
-569 -257 332 0
-569 -258 353 0
-569 -259 374 0
-569 -260 395 0
-569 -261 416 0
-569 -262 437 0
-569 -263 458 0
-569 -264 479 0
-569 -265 500 0
-569 -266 521 0
-569 -267 542 0
-569 -268 563 0
-569 -269 584 0
-569 -270 605 0
-569 -271 626 0
-569 -272 647 0
-569 -273 668 0
-570 -274 248 0
-570 -275 269 0
-570 -276 290 0
-570 -277 311 0
-570 -278 332 0
-570 -279 353 0
-570 -280 374 0
-570 -281 395 0
-570 -282 416 0
-570 -283 437 0
-570 -284 458 0
-570 -285 479 0
-570 -286 500 0
-570 -287 521 0
-570 -288 542 0
-570 -289 563 0
-570 -290 584 0
-570 -291 605 0
-570 -292 626 0
-570 -293 647 0
-570 -294 668 0
-571 -295 248 0
-571 -296 269 0
-571 -297 290 0
-571 -298 311 0
-571 -299 332 0
-571 -300 353 0
-571 -301 374 0
-571 -302 395 0
-571 -303 416 0
-571 -304 437 0
-571 -305 458 0
-571 -306 479 0
-571 -307 500 0
-571 -308 521 0
-571 -309 542 0
-571 -310 563 0
-571 -311 584 0
-571 -312 605 0
-571 -313 626 0
-571 -314 647 0
-571 -315 668 0
-572 -316 248 0
-572 -317 269 0
-572 -318 290 0
-572 -319 311 0
-572 -320 332 0
-572 -321 353 0
-572 -322 374 0
-572 -323 395 0
-572 -324 416 0
-572 -325 437 0
-572 -326 458 0
-572 -327 479 0
-572 -328 500 0
-572 -329 521 0
-572 -330 542 0
-572 -331 563 0
-572 -332 584 0
-572 -333 605 0
-572 -334 626 0
-572 -335 647 0
-572 -336 668 0
-573 -337 248 0
-573 -338 269 0
-573 -339 290 0
-573 -340 311 0
-573 -341 332 0
-573 -342 353 0
-573 -343 374 0
-573 -344 395 0
-573 -345 416 0
-573 -346 437 0
-573 -347 458 0
-573 -348 479 0
-573 -349 500 0
-573 -350 521 0
-573 -351 542 0
-573 -352 563 0
-573 -353 584 0
-573 -354 605 0
-573 -355 626 0
-573 -356 647 0
-573 -357 668 0
-574 -358 248 0
-574 -359 269 0
-574 -360 290 0
-574 -361 311 0
-574 -362 332 0
-574 -363 353 0
-574 -364 374 0
-574 -365 395 0
-574 -366 416 0
-574 -367 437 0
-574 -368 458 0
-574 -369 479 0
-574 -370 500 0
-574 -371 521 0
-574 -372 542 0
-574 -373 563 0
-574 -374 584 0
-574 -375 605 0
-574 -376 626 0
-574 -377 647 0
-574 -378 668 0
-575 -379 248 0
-575 -380 269 0
-575 -381 290 0
-575 -382 311 0
-575 -383 332 0
-575 -384 353 0
-575 -385 374 0
-575 -386 395 0
-575 -387 416 0
-575 -388 437 0
-575 -389 458 0
-575 -390 479 0
-575 -391 500 0
-575 -392 521 0
-575 -393 542 0
-575 -394 563 0
-575 -395 584 0
-575 -396 605 0
-575 -397 626 0
-575 -398 647 0
-575 -399 668 0
-576 -400 248 0
-576 -401 269 0
-576 -402 290 0
-576 -403 311 0
-576 -404 332 0
-576 -405 353 0
-576 -406 374 0
-576 -407 395 0
-576 -408 416 0
-576 -409 437 0
-576 -410 458 0
-576 -411 479 0
-576 -412 500 0
-576 -413 521 0
-576 -414 542 0
-576 -415 563 0
-576 -416 584 0
-576 -417 605 0
-576 -418 626 0
-576 -419 647 0
-576 -420 668 0
-577 -421 248 0
-577 -422 269 0
-577 -423 290 0
-577 -424 311 0
-577 -425 332 0
-577 -426 353 0
-577 -427 374 0
-577 -428 395 0
-577 -429 416 0
-577 -430 437 0
-577 -431 458 0
-577 -432 479 0
-577 -433 500 0
-577 -434 521 0
-577 -435 542 0
-577 -436 563 0
-577 -437 584 0
-577 -438 605 0
-577 -439 626 0
-577 -440 647 0
-577 -441 668 0
-578 -442 248 0
-578 -443 269 0
-578 -444 290 0
-578 -445 311 0
-578 -446 332 0
-578 -447 353 0
-578 -448 374 0
-578 -449 395 0
-578 -450 416 0
-578 -451 437 0
-578 -452 458 0
-578 -453 479 0
-578 -454 500 0
-578 -455 521 0
-578 -456 542 0
-578 -457 563 0
-578 -458 584 0
-578 -459 605 0
-578 -460 626 0
-578 -461 647 0
-578 -462 668 0
-579 -463 248 0
-579 -464 269 0
-579 -465 290 0
-579 -466 311 0
-579 -467 332 0
-579 -468 353 0
-579 -469 374 0
-579 -470 395 0
-579 -471 416 0
-579 -472 437 0
-579 -473 458 0
-579 -474 479 0
-579 -475 500 0
-579 -476 521 0
-579 -477 542 0
-579 -478 563 0
-579 -479 584 0
-579 -480 605 0
-579 -481 626 0
-579 -482 647 0
-579 -483 668 0
-580 -484 248 0
-580 -485 269 0
-580 -486 290 0
-580 -487 311 0
-580 -488 332 0
-580 -489 353 0
-580 -490 374 0
-580 -491 395 0
-580 -492 416 0
-580 -493 437 0
-580 -494 458 0
-580 -495 479 0
-580 -496 500 0
-580 -497 521 0
-580 -498 542 0
-580 -499 563 0
-580 -500 584 0
-580 -501 605 0
-580 -502 626 0
-580 -503 647 0
-580 -504 668 0
-581 -505 248 0
-581 -506 269 0
-581 -507 290 0
-581 -508 311 0
-581 -509 332 0
-581 -510 353 0
-581 -511 374 0
-581 -512 395 0
-581 -513 416 0
-581 -514 437 0
-581 -515 458 0
-581 -516 479 0
-581 -517 500 0
-581 -518 521 0
-581 -519 542 0
-581 -520 563 0
-581 -521 584 0
-581 -522 605 0
-581 -523 626 0
-581 -524 647 0
-581 -525 668 0
-582 -526 248 0
-582 -527 269 0
-582 -528 290 0
-582 -529 311 0
-582 -530 332 0
-582 -531 353 0
-582 -532 374 0
-582 -533 395 0
-582 -534 416 0
-582 -535 437 0
-582 -536 458 0
-582 -537 479 0
-582 -538 500 0
-582 -539 521 0
-582 -540 542 0
-582 -541 563 0
-582 -542 584 0
-582 -543 605 0
-582 -544 626 0
-582 -545 647 0
-582 -546 668 0
-583 -547 248 0
-583 -548 269 0
-583 -549 290 0
-583 -550 311 0
-583 -551 332 0
-583 -552 353 0
-583 -553 374 0
-583 -554 395 0
-583 -555 416 0
-583 -556 437 0
-583 -557 458 0
-583 -558 479 0
-583 -559 500 0
-583 -560 521 0
-583 -561 542 0
-583 -562 563 0
-583 -563 584 0
-583 -564 605 0
-583 -565 626 0
-583 -566 647 0
-583 -567 668 0
-584 -568 248 0
-584 -569 269 0
-584 -570 290 0
-584 -571 311 0
-584 -572 332 0
-584 -573 353 0
-584 -574 374 0
-584 -575 395 0
-584 -576 416 0
-584 -577 437 0
-584 -578 458 0
-584 -579 479 0
-584 -580 500 0
-584 -581 521 0
-584 -582 542 0
-584 -583 563 0
-584 -584 584 0
-584 -585 605 0
-584 -586 626 0
-584 -587 647 0
-584 -588 668 0
-585 -589 248 0
-585 -590 269 0
-585 -591 290 0
-585 -592 311 0
-585 -593 332 0
-585 -594 353 0
-585 -595 374 0
-585 -596 395 0
-585 -597 416 0
-585 -598 437 0
-585 -599 458 0
-585 -600 479 0
-585 -601 500 0
-585 -602 521 0
-585 -603 542 0
-585 -604 563 0
-585 -605 584 0
-585 -606 605 0
-585 -607 626 0
-585 -608 647 0
-585 -609 668 0
-586 -610 248 0
-586 -611 269 0
-586 -612 290 0
-586 -613 311 0
-586 -614 332 0
-586 -615 353 0
-586 -616 374 0
-586 -617 395 0
-586 -618 416 0
-586 -619 437 0
-586 -620 458 0
-586 -621 479 0
-586 -622 500 0
-586 -623 521 0
-586 -624 542 0
-586 -625 563 0
-586 -626 584 0
-586 -627 605 0
-586 -628 626 0
-586 -629 647 0
-586 -630 668 0
-587 -631 248 0
-587 -632 269 0
-587 -633 290 0
-587 -634 311 0
-587 -635 332 0
-587 -636 353 0
-587 -637 374 0
-587 -638 395 0
-587 -639 416 0
-587 -640 437 0
-587 -641 458 0
-587 -642 479 0
-587 -643 500 0
-587 -644 521 0
-587 -645 542 0
-587 -646 563 0
-587 -647 584 0
-587 -648 605 0
-587 -649 626 0
-587 -650 647 0
-587 -651 668 0
-588 -652 248 0
-588 -653 269 0
-588 -654 290 0
-588 -655 311 0
-588 -656 332 0
-588 -657 353 0
-588 -658 374 0
-588 -659 395 0
-588 -660 416 0
-588 -661 437 0
-588 -662 458 0
-588 -663 479 0
-588 -664 500 0
-588 -665 521 0
-588 -666 542 0
-588 -667 563 0
-588 -668 584 0
-588 -669 605 0
-588 -670 626 0
-588 -671 647 0
-588 -672 668 0
-589 -232 249 0
-589 -233 270 0
-589 -234 291 0
-589 -235 312 0
-589 -236 333 0
-589 -237 354 0
-589 -238 375 0
-589 -239 396 0
-589 -240 417 0
-589 -241 438 0
-589 -242 459 0
-589 -243 480 0
-589 -244 501 0
-589 -245 522 0
-589 -246 543 0
-589 -247 564 0
-589 -248 585 0
-589 -249 606 0
-589 -250 627 0
-589 -251 648 0
-589 -252 669 0
-590 -253 249 0
-590 -254 270 0
-590 -255 291 0
-590 -256 312 0
-590 -257 333 0
-590 -258 354 0
-590 -259 375 0
-590 -260 396 0
-590 -261 417 0
-590 -262 438 0
-590 -263 459 0
-590 -264 480 0
-590 -265 501 0
-590 -266 522 0
-590 -267 543 0
-590 -268 564 0
-590 -269 585 0
-590 -270 606 0
-590 -271 627 0
-590 -272 648 0
-590 -273 669 0
-591 -274 249 0
-591 -275 270 0
-591 -276 291 0
-591 -277 312 0
-591 -278 333 0
-591 -279 354 0
-591 -280 375 0
-591 -281 396 0
-591 -282 417 0
-591 -283 438 0
-591 -284 459 0
-591 -285 480 0
-591 -286 501 0
-591 -287 522 0
-591 -288 543 0
-591 -289 564 0
-591 -290 585 0
-591 -291 606 0
-591 -292 627 0
-591 -293 648 0
-591 -294 669 0
-592 -295 249 0
-592 -296 270 0
-592 -297 291 0
-592 -298 312 0
-592 -299 333 0
-592 -300 354 0
-592 -301 375 0
-592 -302 396 0
-592 -303 417 0
-592 -304 438 0
-592 -305 459 0
-592 -306 480 0
-592 -307 501 0
-592 -308 522 0
-592 -309 543 0
-592 -310 564 0
-592 -311 585 0
-592 -312 606 0
-592 -313 627 0
-592 -314 648 0
-592 -315 669 0
-593 -316 249 0
-593 -317 270 0
-593 -318 291 0
-593 -319 312 0
-593 -320 333 0
-593 -321 354 0
-593 -322 375 0
-593 -323 396 0
-593 -324 417 0
-593 -325 438 0
-593 -326 459 0
-593 -327 480 0
-593 -328 501 0
-593 -329 522 0
-593 -330 543 0
-593 -331 564 0
-593 -332 585 0
-593 -333 606 0
-593 -334 627 0
-593 -335 648 0
-593 -336 669 0
-594 -337 249 0
-594 -338 270 0
-594 -339 291 0
-594 -340 312 0
-594 -341 333 0
-594 -342 354 0
-594 -343 375 0
-594 -344 396 0
-594 -345 417 0
-594 -346 438 0
-594 -347 459 0
-594 -348 480 0
-594 -349 501 0
-594 -350 522 0
-594 -351 543 0
-594 -352 564 0
-594 -353 585 0
-594 -354 606 0
-594 -355 627 0
-594 -356 648 0
-594 -357 669 0
-595 -358 249 0
-595 -359 270 0
-595 -360 291 0
-595 -361 312 0
-595 -362 333 0
-595 -363 354 0
-595 -364 375 0
-595 -365 396 0
-595 -366 417 0
-595 -367 438 0
-595 -368 459 0
-595 -369 480 0
-595 -370 501 0
-595 -371 522 0
-595 -372 543 0
-595 -373 564 0
-595 -374 585 0
-595 -375 606 0
-595 -376 627 0
-595 -377 648 0
-595 -378 669 0
-596 -379 249 0
-596 -380 270 0
-596 -381 291 0
-596 -382 312 0
-596 -383 333 0
-596 -384 354 0
-596 -385 375 0
-596 -386 396 0
-596 -387 417 0
-596 -388 438 0
-596 -389 459 0
-596 -390 480 0
-596 -391 501 0
-596 -392 522 0
-596 -393 543 0
-596 -394 564 0
-596 -395 585 0
-596 -396 606 0
-596 -397 627 0
-596 -398 648 0
-596 -399 669 0
-597 -400 249 0
-597 -401 270 0
-597 -402 291 0
-597 -403 312 0
-597 -404 333 0
-597 -405 354 0
-597 -406 375 0
-597 -407 396 0
-597 -408 417 0
-597 -409 438 0
-597 -410 459 0
-597 -411 480 0
-597 -412 501 0
-597 -413 522 0
-597 -414 543 0
-597 -415 564 0
-597 -416 585 0
-597 -417 606 0
-597 -418 627 0
-597 -419 648 0
-597 -420 669 0
-598 -421 249 0
-598 -422 270 0
-598 -423 291 0
-598 -424 312 0
-598 -425 333 0
-598 -426 354 0
-598 -427 375 0
-598 -428 396 0
-598 -429 417 0
-598 -430 438 0
-598 -431 459 0
-598 -432 480 0
-598 -433 501 0
-598 -434 522 0
-598 -435 543 0
-598 -436 564 0
-598 -437 585 0
-598 -438 606 0
-598 -439 627 0
-598 -440 648 0
-598 -441 669 0
-599 -442 249 0
-599 -443 270 0
-599 -444 291 0
-599 -445 312 0
-599 -446 333 0
-599 -447 354 0
-599 -448 375 0
-599 -449 396 0
-599 -450 417 0
-599 -451 438 0
-599 -452 459 0
-599 -453 480 0
-599 -454 501 0
-599 -455 522 0
-599 -456 543 0
-599 -457 564 0
-599 -458 585 0
-599 -459 606 0
-599 -460 627 0
-599 -461 648 0
-599 -462 669 0
-600 -463 249 0
-600 -464 270 0
-600 -465 291 0
-600 -466 312 0
-600 -467 333 0
-600 -468 354 0
-600 -469 375 0
-600 -470 396 0
-600 -471 417 0
-600 -472 438 0
-600 -473 459 0
-600 -474 480 0
-600 -475 501 0
-600 -476 522 0
-600 -477 543 0
-600 -478 564 0
-600 -479 585 0
-600 -480 606 0
-600 -481 627 0
-600 -482 648 0
-600 -483 669 0
-601 -484 249 0
-601 -485 270 0
-601 -486 291 0
-601 -487 312 0
-601 -488 333 0
-601 -489 354 0
-601 -490 375 0
-601 -491 396 0
-601 -492 417 0
-601 -493 438 0
-601 -494 459 0
-601 -495 480 0
-601 -496 501 0
-601 -497 522 0
-601 -498 543 0
-601 -499 564 0
-601 -500 585 0
-601 -501 606 0
-601 -502 627 0
-601 -503 648 0
-601 -504 669 0
-602 -505 249 0
-602 -506 270 0
-602 -507 291 0
-602 -508 312 0
-602 -509 333 0
-602 -510 354 0
-602 -511 375 0
-602 -512 396 0
-602 -513 417 0
-602 -514 438 0
-602 -515 459 0
-602 -516 480 0
-602 -517 501 0
-602 -518 522 0
-602 -519 543 0
-602 -520 564 0
-602 -521 585 0
-602 -522 606 0
-602 -523 627 0
-602 -524 648 0
-602 -525 669 0
-603 -526 249 0
-603 -527 270 0
-603 -528 291 0
-603 -529 312 0
-603 -530 333 0
-603 -531 354 0
-603 -532 375 0
-603 -533 396 0
-603 -534 417 0
-603 -535 438 0
-603 -536 459 0
-603 -537 480 0
-603 -538 501 0
-603 -539 522 0
-603 -540 543 0
-603 -541 564 0
-603 -542 585 0
-603 -543 606 0
-603 -544 627 0
-603 -545 648 0
-603 -546 669 0
-604 -547 249 0
-604 -548 270 0
-604 -549 291 0
-604 -550 312 0
-604 -551 333 0
-604 -552 354 0
-604 -553 375 0
-604 -554 396 0
-604 -555 417 0
-604 -556 438 0
-604 -557 459 0
-604 -558 480 0
-604 -559 501 0
-604 -560 522 0
-604 -561 543 0
-604 -562 564 0
-604 -563 585 0
-604 -564 606 0
-604 -565 627 0
-604 -566 648 0
-604 -567 669 0
-605 -568 249 0
-605 -569 270 0
-605 -570 291 0
-605 -571 312 0
-605 -572 333 0
-605 -573 354 0
-605 -574 375 0
-605 -575 396 0
-605 -576 417 0
-605 -577 438 0
-605 -578 459 0
-605 -579 480 0
-605 -580 501 0
-605 -581 522 0
-605 -582 543 0
-605 -583 564 0
-605 -584 585 0
-605 -585 606 0
-605 -586 627 0
-605 -587 648 0
-605 -588 669 0
-606 -589 249 0
-606 -590 270 0
-606 -591 291 0
-606 -592 312 0
-606 -593 333 0
-606 -594 354 0
-606 -595 375 0
-606 -596 396 0
-606 -597 417 0
-606 -598 438 0
-606 -599 459 0
-606 -600 480 0
-606 -601 501 0
-606 -602 522 0
-606 -603 543 0
-606 -604 564 0
-606 -605 585 0
-606 -606 606 0
-606 -607 627 0
-606 -608 648 0
-606 -609 669 0
-607 -610 249 0
-607 -611 270 0
-607 -612 291 0
-607 -613 312 0
-607 -614 333 0
-607 -615 354 0
-607 -616 375 0
-607 -617 396 0
-607 -618 417 0
-607 -619 438 0
-607 -620 459 0
-607 -621 480 0
-607 -622 501 0
-607 -623 522 0
-607 -624 543 0
-607 -625 564 0
-607 -626 585 0
-607 -627 606 0
-607 -628 627 0
-607 -629 648 0
-607 -630 669 0
-608 -631 249 0
-608 -632 270 0
-608 -633 291 0
-608 -634 312 0
-608 -635 333 0
-608 -636 354 0
-608 -637 375 0
-608 -638 396 0
-608 -639 417 0
-608 -640 438 0
-608 -641 459 0
-608 -642 480 0
-608 -643 501 0
-608 -644 522 0
-608 -645 543 0
-608 -646 564 0
-608 -647 585 0
-608 -648 606 0
-608 -649 627 0
-608 -650 648 0
-608 -651 669 0
-609 -652 249 0
-609 -653 270 0
-609 -654 291 0
-609 -655 312 0
-609 -656 333 0
-609 -657 354 0
-609 -658 375 0
-609 -659 396 0
-609 -660 417 0
-609 -661 438 0
-609 -662 459 0
-609 -663 480 0
-609 -664 501 0
-609 -665 522 0
-609 -666 543 0
-609 -667 564 0
-609 -668 585 0
-609 -669 606 0
-609 -670 627 0
-609 -671 648 0
-609 -672 669 0
-610 -232 250 0
-610 -233 271 0
-610 -234 292 0
-610 -235 313 0
-610 -236 334 0
-610 -237 355 0
-610 -238 376 0
-610 -239 397 0
-610 -240 418 0
-610 -241 439 0
-610 -242 460 0
-610 -243 481 0
-610 -244 502 0
-610 -245 523 0
-610 -246 544 0
-610 -247 565 0
-610 -248 586 0
-610 -249 607 0
-610 -250 628 0
-610 -251 649 0
-610 -252 670 0
-611 -253 250 0
-611 -254 271 0
-611 -255 292 0
-611 -256 313 0
-611 -257 334 0
-611 -258 355 0
-611 -259 376 0
-611 -260 397 0
-611 -261 418 0
-611 -262 439 0
-611 -263 460 0
-611 -264 481 0
-611 -265 502 0
-611 -266 523 0
-611 -267 544 0
-611 -268 565 0
-611 -269 586 0
-611 -270 607 0
-611 -271 628 0
-611 -272 649 0
-611 -273 670 0
-612 -274 250 0
-612 -275 271 0
-612 -276 292 0
-612 -277 313 0
-612 -278 334 0
-612 -279 355 0
-612 -280 376 0
-612 -281 397 0
-612 -282 418 0
-612 -283 439 0
-612 -284 460 0
-612 -285 481 0
-612 -286 502 0
-612 -287 523 0
-612 -288 544 0
-612 -289 565 0
-612 -290 586 0
-612 -291 607 0
-612 -292 628 0
-612 -293 649 0
-612 -294 670 0
-613 -295 250 0
-613 -296 271 0
-613 -297 292 0
-613 -298 313 0
-613 -299 334 0
-613 -300 355 0
-613 -301 376 0
-613 -302 397 0
-613 -303 418 0
-613 -304 439 0
-613 -305 460 0
-613 -306 481 0
-613 -307 502 0
-613 -308 523 0
-613 -309 544 0
-613 -310 565 0
-613 -311 586 0
-613 -312 607 0
-613 -313 628 0
-613 -314 649 0
-613 -315 670 0
-614 -316 250 0
-614 -317 271 0
-614 -318 292 0
-614 -319 313 0
-614 -320 334 0
-614 -321 355 0
-614 -322 376 0
-614 -323 397 0
-614 -324 418 0
-614 -325 439 0
-614 -326 460 0
-614 -327 481 0
-614 -328 502 0
-614 -329 523 0
-614 -330 544 0
-614 -331 565 0
-614 -332 586 0
-614 -333 607 0
-614 -334 628 0
-614 -335 649 0
-614 -336 670 0
-615 -337 250 0
-615 -338 271 0
-615 -339 292 0
-615 -340 313 0
-615 -341 334 0
-615 -342 355 0
-615 -343 376 0
-615 -344 397 0
-615 -345 418 0
-615 -346 439 0
-615 -347 460 0
-615 -348 481 0
-615 -349 502 0
-615 -350 523 0
-615 -351 544 0
-615 -352 565 0
-615 -353 586 0
-615 -354 607 0
-615 -355 628 0
-615 -356 649 0
-615 -357 670 0
-616 -358 250 0
-616 -359 271 0
-616 -360 292 0
-616 -361 313 0
-616 -362 334 0
-616 -363 355 0
-616 -364 376 0
-616 -365 397 0
-616 -366 418 0
-616 -367 439 0
-616 -368 460 0
-616 -369 481 0
-616 -370 502 0
-616 -371 523 0
-616 -372 544 0
-616 -373 565 0
-616 -374 586 0
-616 -375 607 0
-616 -376 628 0
-616 -377 649 0
-616 -378 670 0
-617 -379 250 0
-617 -380 271 0
-617 -381 292 0
-617 -382 313 0
-617 -383 334 0
-617 -384 355 0
-617 -385 376 0
-617 -386 397 0
-617 -387 418 0
-617 -388 439 0
-617 -389 460 0
-617 -390 481 0
-617 -391 502 0
-617 -392 523 0
-617 -393 544 0
-617 -394 565 0
-617 -395 586 0
-617 -396 607 0
-617 -397 628 0
-617 -398 649 0
-617 -399 670 0
-618 -400 250 0
-618 -401 271 0
-618 -402 292 0
-618 -403 313 0
-618 -404 334 0
-618 -405 355 0
-618 -406 376 0
-618 -407 397 0
-618 -408 418 0
-618 -409 439 0
-618 -410 460 0
-618 -411 481 0
-618 -412 502 0
-618 -413 523 0
-618 -414 544 0
-618 -415 565 0
-618 -416 586 0
-618 -417 607 0
-618 -418 628 0
-618 -419 649 0
-618 -420 670 0
-619 -421 250 0
-619 -422 271 0
-619 -423 292 0
-619 -424 313 0
-619 -425 334 0
-619 -426 355 0
-619 -427 376 0
-619 -428 397 0
-619 -429 418 0
-619 -430 439 0
-619 -431 460 0
-619 -432 481 0
-619 -433 502 0
-619 -434 523 0
-619 -435 544 0
-619 -436 565 0
-619 -437 586 0
-619 -438 607 0
-619 -439 628 0
-619 -440 649 0
-619 -441 670 0
-620 -442 250 0
-620 -443 271 0
-620 -444 292 0
-620 -445 313 0
-620 -446 334 0
-620 -447 355 0
-620 -448 376 0
-620 -449 397 0
-620 -450 418 0
-620 -451 439 0
-620 -452 460 0
-620 -453 481 0
-620 -454 502 0
-620 -455 523 0
-620 -456 544 0
-620 -457 565 0
-620 -458 586 0
-620 -459 607 0
-620 -460 628 0
-620 -461 649 0
-620 -462 670 0
-621 -463 250 0
-621 -464 271 0
-621 -465 292 0
-621 -466 313 0
-621 -467 334 0
-621 -468 355 0
-621 -469 376 0
-621 -470 397 0
-621 -471 418 0
-621 -472 439 0
-621 -473 460 0
-621 -474 481 0
-621 -475 502 0
-621 -476 523 0
-621 -477 544 0
-621 -478 565 0
-621 -479 586 0
-621 -480 607 0
-621 -481 628 0
-621 -482 649 0
-621 -483 670 0
-622 -484 250 0
-622 -485 271 0
-622 -486 292 0
-622 -487 313 0
-622 -488 334 0
-622 -489 355 0
-622 -490 376 0
-622 -491 397 0
-622 -492 418 0
-622 -493 439 0
-622 -494 460 0
-622 -495 481 0
-622 -496 502 0
-622 -497 523 0
-622 -498 544 0
-622 -499 565 0
-622 -500 586 0
-622 -501 607 0
-622 -502 628 0
-622 -503 649 0
-622 -504 670 0
-623 -505 250 0
-623 -506 271 0
-623 -507 292 0
-623 -508 313 0
-623 -509 334 0
-623 -510 355 0
-623 -511 376 0
-623 -512 397 0
-623 -513 418 0
-623 -514 439 0
-623 -515 460 0
-623 -516 481 0
-623 -517 502 0
-623 -518 523 0
-623 -519 544 0
-623 -520 565 0
-623 -521 586 0
-623 -522 607 0
-623 -523 628 0
-623 -524 649 0
-623 -525 670 0
-624 -526 250 0
-624 -527 271 0
-624 -528 292 0
-624 -529 313 0
-624 -530 334 0
-624 -531 355 0
-624 -532 376 0
-624 -533 397 0
-624 -534 418 0
-624 -535 439 0
-624 -536 460 0
-624 -537 481 0
-624 -538 502 0
-624 -539 523 0
-624 -540 544 0
-624 -541 565 0
-624 -542 586 0
-624 -543 607 0
-624 -544 628 0
-624 -545 649 0
-624 -546 670 0
-625 -547 250 0
-625 -548 271 0
-625 -549 292 0
-625 -550 313 0
-625 -551 334 0
-625 -552 355 0
-625 -553 376 0
-625 -554 397 0
-625 -555 418 0
-625 -556 439 0
-625 -557 460 0
-625 -558 481 0
-625 -559 502 0
-625 -560 523 0
-625 -561 544 0
-625 -562 565 0
-625 -563 586 0
-625 -564 607 0
-625 -565 628 0
-625 -566 649 0
-625 -567 670 0
-626 -568 250 0
-626 -569 271 0
-626 -570 292 0
-626 -571 313 0
-626 -572 334 0
-626 -573 355 0
-626 -574 376 0
-626 -575 397 0
-626 -576 418 0
-626 -577 439 0
-626 -578 460 0
-626 -579 481 0
-626 -580 502 0
-626 -581 523 0
-626 -582 544 0
-626 -583 565 0
-626 -584 586 0
-626 -585 607 0
-626 -586 628 0
-626 -587 649 0
-626 -588 670 0
-627 -589 250 0
-627 -590 271 0
-627 -591 292 0
-627 -592 313 0
-627 -593 334 0
-627 -594 355 0
-627 -595 376 0
-627 -596 397 0
-627 -597 418 0
-627 -598 439 0
-627 -599 460 0
-627 -600 481 0
-627 -601 502 0
-627 -602 523 0
-627 -603 544 0
-627 -604 565 0
-627 -605 586 0
-627 -606 607 0
-627 -607 628 0
-627 -608 649 0
-627 -609 670 0
-628 -610 250 0
-628 -611 271 0
-628 -612 292 0
-628 -613 313 0
-628 -614 334 0
-628 -615 355 0
-628 -616 376 0
-628 -617 397 0
-628 -618 418 0
-628 -619 439 0
-628 -620 460 0
-628 -621 481 0
-628 -622 502 0
-628 -623 523 0
-628 -624 544 0
-628 -625 565 0
-628 -626 586 0
-628 -627 607 0
-628 -628 628 0
-628 -629 649 0
-628 -630 670 0
-629 -631 250 0
-629 -632 271 0
-629 -633 292 0
-629 -634 313 0
-629 -635 334 0
-629 -636 355 0
-629 -637 376 0
-629 -638 397 0
-629 -639 418 0
-629 -640 439 0
-629 -641 460 0
-629 -642 481 0
-629 -643 502 0
-629 -644 523 0
-629 -645 544 0
-629 -646 565 0
-629 -647 586 0
-629 -648 607 0
-629 -649 628 0
-629 -650 649 0
-629 -651 670 0
-630 -652 250 0
-630 -653 271 0
-630 -654 292 0
-630 -655 313 0
-630 -656 334 0
-630 -657 355 0
-630 -658 376 0
-630 -659 397 0
-630 -660 418 0
-630 -661 439 0
-630 -662 460 0
-630 -663 481 0
-630 -664 502 0
-630 -665 523 0
-630 -666 544 0
-630 -667 565 0
-630 -668 586 0
-630 -669 607 0
-630 -670 628 0
-630 -671 649 0
-630 -672 670 0
-631 -232 251 0
-631 -233 272 0
-631 -234 293 0
-631 -235 314 0
-631 -236 335 0
-631 -237 356 0
-631 -238 377 0
-631 -239 398 0
-631 -240 419 0
-631 -241 440 0
-631 -242 461 0
-631 -243 482 0
-631 -244 503 0
-631 -245 524 0
-631 -246 545 0
-631 -247 566 0
-631 -248 587 0
-631 -249 608 0
-631 -250 629 0
-631 -251 650 0
-631 -252 671 0
-632 -253 251 0
-632 -254 272 0
-632 -255 293 0
-632 -256 314 0
-632 -257 335 0
-632 -258 356 0
-632 -259 377 0
-632 -260 398 0
-632 -261 419 0
-632 -262 440 0
-632 -263 461 0
-632 -264 482 0
-632 -265 503 0
-632 -266 524 0
-632 -267 545 0
-632 -268 566 0
-632 -269 587 0
-632 -270 608 0
-632 -271 629 0
-632 -272 650 0
-632 -273 671 0
-633 -274 251 0
-633 -275 272 0
-633 -276 293 0
-633 -277 314 0
-633 -278 335 0
-633 -279 356 0
-633 -280 377 0
-633 -281 398 0
-633 -282 419 0
-633 -283 440 0
-633 -284 461 0
-633 -285 482 0
-633 -286 503 0
-633 -287 524 0
-633 -288 545 0
-633 -289 566 0
-633 -290 587 0
-633 -291 608 0
-633 -292 629 0
-633 -293 650 0
-633 -294 671 0
-634 -295 251 0
-634 -296 272 0
-634 -297 293 0
-634 -298 314 0
-634 -299 335 0
-634 -300 356 0
-634 -301 377 0
-634 -302 398 0
-634 -303 419 0
-634 -304 440 0
-634 -305 461 0
-634 -306 482 0
-634 -307 503 0
-634 -308 524 0
-634 -309 545 0
-634 -310 566 0
-634 -311 587 0
-634 -312 608 0
-634 -313 629 0
-634 -314 650 0
-634 -315 671 0
-635 -316 251 0
-635 -317 272 0
-635 -318 293 0
-635 -319 314 0
-635 -320 335 0
-635 -321 356 0
-635 -322 377 0
-635 -323 398 0
-635 -324 419 0
-635 -325 440 0
-635 -326 461 0
-635 -327 482 0
-635 -328 503 0
-635 -329 524 0
-635 -330 545 0
-635 -331 566 0
-635 -332 587 0
-635 -333 608 0
-635 -334 629 0
-635 -335 650 0
-635 -336 671 0
-636 -337 251 0
-636 -338 272 0
-636 -339 293 0
-636 -340 314 0
-636 -341 335 0
-636 -342 356 0
-636 -343 377 0
-636 -344 398 0
-636 -345 419 0
-636 -346 440 0
-636 -347 461 0
-636 -348 482 0
-636 -349 503 0
-636 -350 524 0
-636 -351 545 0
-636 -352 566 0
-636 -353 587 0
-636 -354 608 0
-636 -355 629 0
-636 -356 650 0
-636 -357 671 0
-637 -358 251 0
-637 -359 272 0
-637 -360 293 0
-637 -361 314 0
-637 -362 335 0
-637 -363 356 0
-637 -364 377 0
-637 -365 398 0
-637 -366 419 0
-637 -367 440 0
-637 -368 461 0
-637 -369 482 0
-637 -370 503 0
-637 -371 524 0
-637 -372 545 0
-637 -373 566 0
-637 -374 587 0
-637 -375 608 0
-637 -376 629 0
-637 -377 650 0
-637 -378 671 0
-638 -379 251 0
-638 -380 272 0
-638 -381 293 0
-638 -382 314 0
-638 -383 335 0
-638 -384 356 0
-638 -385 377 0
-638 -386 398 0
-638 -387 419 0
-638 -388 440 0
-638 -389 461 0
-638 -390 482 0
-638 -391 503 0
-638 -392 524 0
-638 -393 545 0
-638 -394 566 0
-638 -395 587 0
-638 -396 608 0
-638 -397 629 0
-638 -398 650 0
-638 -399 671 0
-639 -400 251 0
-639 -401 272 0
-639 -402 293 0
-639 -403 314 0
-639 -404 335 0
-639 -405 356 0
-639 -406 377 0
-639 -407 398 0
-639 -408 419 0
-639 -409 440 0
-639 -410 461 0
-639 -411 482 0
-639 -412 503 0
-639 -413 524 0
-639 -414 545 0
-639 -415 566 0
-639 -416 587 0
-639 -417 608 0
-639 -418 629 0
-639 -419 650 0
-639 -420 671 0
-640 -421 251 0
-640 -422 272 0
-640 -423 293 0
-640 -424 314 0
-640 -425 335 0
-640 -426 356 0
-640 -427 377 0
-640 -428 398 0
-640 -429 419 0
-640 -430 440 0
-640 -431 461 0
-640 -432 482 0
-640 -433 503 0
-640 -434 524 0
-640 -435 545 0
-640 -436 566 0
-640 -437 587 0
-640 -438 608 0
-640 -439 629 0
-640 -440 650 0
-640 -441 671 0
-641 -442 251 0
-641 -443 272 0
-641 -444 293 0
-641 -445 314 0
-641 -446 335 0
-641 -447 356 0
-641 -448 377 0
-641 -449 398 0
-641 -450 419 0
-641 -451 440 0
-641 -452 461 0
-641 -453 482 0
-641 -454 503 0
-641 -455 524 0
-641 -456 545 0
-641 -457 566 0
-641 -458 587 0
-641 -459 608 0
-641 -460 629 0
-641 -461 650 0
-641 -462 671 0
-642 -463 251 0
-642 -464 272 0
-642 -465 293 0
-642 -466 314 0
-642 -467 335 0
-642 -468 356 0
-642 -469 377 0
-642 -470 398 0
-642 -471 419 0
-642 -472 440 0
-642 -473 461 0
-642 -474 482 0
-642 -475 503 0
-642 -476 524 0
-642 -477 545 0
-642 -478 566 0
-642 -479 587 0
-642 -480 608 0
-642 -481 629 0
-642 -482 650 0
-642 -483 671 0
-643 -484 251 0
-643 -485 272 0
-643 -486 293 0
-643 -487 314 0
-643 -488 335 0
-643 -489 356 0
-643 -490 377 0
-643 -491 398 0
-643 -492 419 0
-643 -493 440 0
-643 -494 461 0
-643 -495 482 0
-643 -496 503 0
-643 -497 524 0
-643 -498 545 0
-643 -499 566 0
-643 -500 587 0
-643 -501 608 0
-643 -502 629 0
-643 -503 650 0
-643 -504 671 0
-644 -505 251 0
-644 -506 272 0
-644 -507 293 0
-644 -508 314 0
-644 -509 335 0
-644 -510 356 0
-644 -511 377 0
-644 -512 398 0
-644 -513 419 0
-644 -514 440 0
-644 -515 461 0
-644 -516 482 0
-644 -517 503 0
-644 -518 524 0
-644 -519 545 0
-644 -520 566 0
-644 -521 587 0
-644 -522 608 0
-644 -523 629 0
-644 -524 650 0
-644 -525 671 0
-645 -526 251 0
-645 -527 272 0
-645 -528 293 0
-645 -529 314 0
-645 -530 335 0
-645 -531 356 0
-645 -532 377 0
-645 -533 398 0
-645 -534 419 0
-645 -535 440 0
-645 -536 461 0
-645 -537 482 0
-645 -538 503 0
-645 -539 524 0
-645 -540 545 0
-645 -541 566 0
-645 -542 587 0
-645 -543 608 0
-645 -544 629 0
-645 -545 650 0
-645 -546 671 0
-646 -547 251 0
-646 -548 272 0
-646 -549 293 0
-646 -550 314 0
-646 -551 335 0
-646 -552 356 0
-646 -553 377 0
-646 -554 398 0
-646 -555 419 0
-646 -556 440 0
-646 -557 461 0
-646 -558 482 0
-646 -559 503 0
-646 -560 524 0
-646 -561 545 0
-646 -562 566 0
-646 -563 587 0
-646 -564 608 0
-646 -565 629 0
-646 -566 650 0
-646 -567 671 0
-647 -568 251 0
-647 -569 272 0
-647 -570 293 0
-647 -571 314 0
-647 -572 335 0
-647 -573 356 0
-647 -574 377 0
-647 -575 398 0
-647 -576 419 0
-647 -577 440 0
-647 -578 461 0
-647 -579 482 0
-647 -580 503 0
-647 -581 524 0
-647 -582 545 0
-647 -583 566 0
-647 -584 587 0
-647 -585 608 0
-647 -586 629 0
-647 -587 650 0
-647 -588 671 0
-648 -589 251 0
-648 -590 272 0
-648 -591 293 0
-648 -592 314 0
-648 -593 335 0
-648 -594 356 0
-648 -595 377 0
-648 -596 398 0
-648 -597 419 0
-648 -598 440 0
-648 -599 461 0
-648 -600 482 0
-648 -601 503 0
-648 -602 524 0
-648 -603 545 0
-648 -604 566 0
-648 -605 587 0
-648 -606 608 0
-648 -607 629 0
-648 -608 650 0
-648 -609 671 0
-649 -610 251 0
-649 -611 272 0
-649 -612 293 0
-649 -613 314 0
-649 -614 335 0
-649 -615 356 0
-649 -616 377 0
-649 -617 398 0
-649 -618 419 0
-649 -619 440 0
-649 -620 461 0
-649 -621 482 0
-649 -622 503 0
-649 -623 524 0
-649 -624 545 0
-649 -625 566 0
-649 -626 587 0
-649 -627 608 0
-649 -628 629 0
-649 -629 650 0
-649 -630 671 0
-650 -631 251 0
-650 -632 272 0
-650 -633 293 0
-650 -634 314 0
-650 -635 335 0
-650 -636 356 0
-650 -637 377 0
-650 -638 398 0
-650 -639 419 0
-650 -640 440 0
-650 -641 461 0
-650 -642 482 0
-650 -643 503 0
-650 -644 524 0
-650 -645 545 0
-650 -646 566 0
-650 -647 587 0
-650 -648 608 0
-650 -649 629 0
-650 -650 650 0
-650 -651 671 0
-651 -652 251 0
-651 -653 272 0
-651 -654 293 0
-651 -655 314 0
-651 -656 335 0
-651 -657 356 0
-651 -658 377 0
-651 -659 398 0
-651 -660 419 0
-651 -661 440 0
-651 -662 461 0
-651 -663 482 0
-651 -664 503 0
-651 -665 524 0
-651 -666 545 0
-651 -667 566 0
-651 -668 587 0
-651 -669 608 0
-651 -670 629 0
-651 -671 650 0
-651 -672 671 0
-652 -232 252 0
-652 -233 273 0
-652 -234 294 0
-652 -235 315 0
-652 -236 336 0
-652 -237 357 0
-652 -238 378 0
-652 -239 399 0
-652 -240 420 0
-652 -241 441 0
-652 -242 462 0
-652 -243 483 0
-652 -244 504 0
-652 -245 525 0
-652 -246 546 0
-652 -247 567 0
-652 -248 588 0
-652 -249 609 0
-652 -250 630 0
-652 -251 651 0
-652 -252 672 0
-653 -253 252 0
-653 -254 273 0
-653 -255 294 0
-653 -256 315 0
-653 -257 336 0
-653 -258 357 0
-653 -259 378 0
-653 -260 399 0
-653 -261 420 0
-653 -262 441 0
-653 -263 462 0
-653 -264 483 0
-653 -265 504 0
-653 -266 525 0
-653 -267 546 0
-653 -268 567 0
-653 -269 588 0
-653 -270 609 0
-653 -271 630 0
-653 -272 651 0
-653 -273 672 0
-654 -274 252 0
-654 -275 273 0
-654 -276 294 0
-654 -277 315 0
-654 -278 336 0
-654 -279 357 0
-654 -280 378 0
-654 -281 399 0
-654 -282 420 0
-654 -283 441 0
-654 -284 462 0
-654 -285 483 0
-654 -286 504 0
-654 -287 525 0
-654 -288 546 0
-654 -289 567 0
-654 -290 588 0
-654 -291 609 0
-654 -292 630 0
-654 -293 651 0
-654 -294 672 0
-655 -295 252 0
-655 -296 273 0
-655 -297 294 0
-655 -298 315 0
-655 -299 336 0
-655 -300 357 0
-655 -301 378 0
-655 -302 399 0
-655 -303 420 0
-655 -304 441 0
-655 -305 462 0
-655 -306 483 0
-655 -307 504 0
-655 -308 525 0
-655 -309 546 0
-655 -310 567 0
-655 -311 588 0
-655 -312 609 0
-655 -313 630 0
-655 -314 651 0
-655 -315 672 0
-656 -316 252 0
-656 -317 273 0
-656 -318 294 0
-656 -319 315 0
-656 -320 336 0
-656 -321 357 0
-656 -322 378 0
-656 -323 399 0
-656 -324 420 0
-656 -325 441 0
-656 -326 462 0
-656 -327 483 0
-656 -328 504 0
-656 -329 525 0
-656 -330 546 0
-656 -331 567 0
-656 -332 588 0
-656 -333 609 0
-656 -334 630 0
-656 -335 651 0
-656 -336 672 0
-657 -337 252 0
-657 -338 273 0
-657 -339 294 0
-657 -340 315 0
-657 -341 336 0
-657 -342 357 0
-657 -343 378 0
-657 -344 399 0
-657 -345 420 0
-657 -346 441 0
-657 -347 462 0
-657 -348 483 0
-657 -349 504 0
-657 -350 525 0
-657 -351 546 0
-657 -352 567 0
-657 -353 588 0
-657 -354 609 0
-657 -355 630 0
-657 -356 651 0
-657 -357 672 0
-658 -358 252 0
-658 -359 273 0
-658 -360 294 0
-658 -361 315 0
-658 -362 336 0
-658 -363 357 0
-658 -364 378 0
-658 -365 399 0
-658 -366 420 0
-658 -367 441 0
-658 -368 462 0
-658 -369 483 0
-658 -370 504 0
-658 -371 525 0
-658 -372 546 0
-658 -373 567 0
-658 -374 588 0
-658 -375 609 0
-658 -376 630 0
-658 -377 651 0
-658 -378 672 0
-659 -379 252 0
-659 -380 273 0
-659 -381 294 0
-659 -382 315 0
-659 -383 336 0
-659 -384 357 0
-659 -385 378 0
-659 -386 399 0
-659 -387 420 0
-659 -388 441 0
-659 -389 462 0
-659 -390 483 0
-659 -391 504 0
-659 -392 525 0
-659 -393 546 0
-659 -394 567 0
-659 -395 588 0
-659 -396 609 0
-659 -397 630 0
-659 -398 651 0
-659 -399 672 0
-660 -400 252 0
-660 -401 273 0
-660 -402 294 0
-660 -403 315 0
-660 -404 336 0
-660 -405 357 0
-660 -406 378 0
-660 -407 399 0
-660 -408 420 0
-660 -409 441 0
-660 -410 462 0
-660 -411 483 0
-660 -412 504 0
-660 -413 525 0
-660 -414 546 0
-660 -415 567 0
-660 -416 588 0
-660 -417 609 0
-660 -418 630 0
-660 -419 651 0
-660 -420 672 0
-661 -421 252 0
-661 -422 273 0
-661 -423 294 0
-661 -424 315 0
-661 -425 336 0
-661 -426 357 0
-661 -427 378 0
-661 -428 399 0
-661 -429 420 0
-661 -430 441 0
-661 -431 462 0
-661 -432 483 0
-661 -433 504 0
-661 -434 525 0
-661 -435 546 0
-661 -436 567 0
-661 -437 588 0
-661 -438 609 0
-661 -439 630 0
-661 -440 651 0
-661 -441 672 0
-662 -442 252 0
-662 -443 273 0
-662 -444 294 0
-662 -445 315 0
-662 -446 336 0
-662 -447 357 0
-662 -448 378 0
-662 -449 399 0
-662 -450 420 0
-662 -451 441 0
-662 -452 462 0
-662 -453 483 0
-662 -454 504 0
-662 -455 525 0
-662 -456 546 0
-662 -457 567 0
-662 -458 588 0
-662 -459 609 0
-662 -460 630 0
-662 -461 651 0
-662 -462 672 0
-663 -463 252 0
-663 -464 273 0
-663 -465 294 0
-663 -466 315 0
-663 -467 336 0
-663 -468 357 0
-663 -469 378 0
-663 -470 399 0
-663 -471 420 0
-663 -472 441 0
-663 -473 462 0
-663 -474 483 0
-663 -475 504 0
-663 -476 525 0
-663 -477 546 0
-663 -478 567 0
-663 -479 588 0
-663 -480 609 0
-663 -481 630 0
-663 -482 651 0
-663 -483 672 0
-664 -484 252 0
-664 -485 273 0
-664 -486 294 0
-664 -487 315 0
-664 -488 336 0
-664 -489 357 0
-664 -490 378 0
-664 -491 399 0
-664 -492 420 0
-664 -493 441 0
-664 -494 462 0
-664 -495 483 0
-664 -496 504 0
-664 -497 525 0
-664 -498 546 0
-664 -499 567 0
-664 -500 588 0
-664 -501 609 0
-664 -502 630 0
-664 -503 651 0
-664 -504 672 0
-665 -505 252 0
-665 -506 273 0
-665 -507 294 0
-665 -508 315 0
-665 -509 336 0
-665 -510 357 0
-665 -511 378 0
-665 -512 399 0
-665 -513 420 0
-665 -514 441 0
-665 -515 462 0
-665 -516 483 0
-665 -517 504 0
-665 -518 525 0
-665 -519 546 0
-665 -520 567 0
-665 -521 588 0
-665 -522 609 0
-665 -523 630 0
-665 -524 651 0
-665 -525 672 0
-666 -526 252 0
-666 -527 273 0
-666 -528 294 0
-666 -529 315 0
-666 -530 336 0
-666 -531 357 0
-666 -532 378 0
-666 -533 399 0
-666 -534 420 0
-666 -535 441 0
-666 -536 462 0
-666 -537 483 0
-666 -538 504 0
-666 -539 525 0
-666 -540 546 0
-666 -541 567 0
-666 -542 588 0
-666 -543 609 0
-666 -544 630 0
-666 -545 651 0
-666 -546 672 0
-667 -547 252 0
-667 -548 273 0
-667 -549 294 0
-667 -550 315 0
-667 -551 336 0
-667 -552 357 0
-667 -553 378 0
-667 -554 399 0
-667 -555 420 0
-667 -556 441 0
-667 -557 462 0
-667 -558 483 0
-667 -559 504 0
-667 -560 525 0
-667 -561 546 0
-667 -562 567 0
-667 -563 588 0
-667 -564 609 0
-667 -565 630 0
-667 -566 651 0
-667 -567 672 0
-668 -568 252 0
-668 -569 273 0
-668 -570 294 0
-668 -571 315 0
-668 -572 336 0
-668 -573 357 0
-668 -574 378 0
-668 -575 399 0
-668 -576 420 0
-668 -577 441 0
-668 -578 462 0
-668 -579 483 0
-668 -580 504 0
-668 -581 525 0
-668 -582 546 0
-668 -583 567 0
-668 -584 588 0
-668 -585 609 0
-668 -586 630 0
-668 -587 651 0
-668 -588 672 0
-669 -589 252 0
-669 -590 273 0
-669 -591 294 0
-669 -592 315 0
-669 -593 336 0
-669 -594 357 0
-669 -595 378 0
-669 -596 399 0
-669 -597 420 0
-669 -598 441 0
-669 -599 462 0
-669 -600 483 0
-669 -601 504 0
-669 -602 525 0
-669 -603 546 0
-669 -604 567 0
-669 -605 588 0
-669 -606 609 0
-669 -607 630 0
-669 -608 651 0
-669 -609 672 0
-670 -610 252 0
-670 -611 273 0
-670 -612 294 0
-670 -613 315 0
-670 -614 336 0
-670 -615 357 0
-670 -616 378 0
-670 -617 399 0
-670 -618 420 0
-670 -619 441 0
-670 -620 462 0
-670 -621 483 0
-670 -622 504 0
-670 -623 525 0
-670 -624 546 0
-670 -625 567 0
-670 -626 588 0
-670 -627 609 0
-670 -628 630 0
-670 -629 651 0
-670 -630 672 0
-671 -631 252 0
-671 -632 273 0
-671 -633 294 0
-671 -634 315 0
-671 -635 336 0
-671 -636 357 0
-671 -637 378 0
-671 -638 399 0
-671 -639 420 0
-671 -640 441 0
-671 -641 462 0
-671 -642 483 0
-671 -643 504 0
-671 -644 525 0
-671 -645 546 0
-671 -646 567 0
-671 -647 588 0
-671 -648 609 0
-671 -649 630 0
-671 -650 651 0
-671 -651 672 0
-672 -652 252 0
-672 -653 273 0
-672 -654 294 0
-672 -655 315 0
-672 -656 336 0
-672 -657 357 0
-672 -658 378 0
-672 -659 399 0
-672 -660 420 0
-672 -661 441 0
-672 -662 462 0
-672 -663 483 0
-672 -664 504 0
-672 -665 525 0
-672 -666 546 0
-672 -667 567 0
-672 -668 588 0
-672 -669 609 0
-672 -670 630 0
-672 -671 651 0
-672 -672 672 0
-232 0
-254 0
-276 0
-298 0
-320 0
-342 0
-364 0
-386 0
-408 0
-430 0
-452 0
-474 0
-496 0
-518 0
-540 0
-562 0
-584 0
-606 0
-628 0
-650 0
-672 0
