c n=25 ell=17 SAT existence target -- CLASS CONSTRAINTS ONLY.
c Expected: SAT, EXACT solution count 82688 (external oracle: search/sat/tools/structure_const_a25.g, GAP character table).
c Source: sol/sol_reply_84_math11.md sec 6.3.
c Generated by search/sat/encode_a25.py -- do not hand-edit.
p cnf 950 25002
1 2 3 4 5 6 7 8 9 10 11 12 13 14 15 16 17 18 19 20 21 22 23 24 301 0
-1 -2 0
-1 -3 0
-1 -4 0
-1 -5 0
-1 -6 0
-1 -7 0
-1 -8 0
-1 -9 0
-1 -10 0
-1 -11 0
-1 -12 0
-1 -13 0
-1 -14 0
-1 -15 0
-1 -16 0
-1 -17 0
-1 -18 0
-1 -19 0
-1 -20 0
-1 -21 0
-1 -22 0
-1 -23 0
-1 -24 0
-1 -301 0
-2 -3 0
-2 -4 0
-2 -5 0
-2 -6 0
-2 -7 0
-2 -8 0
-2 -9 0
-2 -10 0
-2 -11 0
-2 -12 0
-2 -13 0
-2 -14 0
-2 -15 0
-2 -16 0
-2 -17 0
-2 -18 0
-2 -19 0
-2 -20 0
-2 -21 0
-2 -22 0
-2 -23 0
-2 -24 0
-2 -301 0
-3 -4 0
-3 -5 0
-3 -6 0
-3 -7 0
-3 -8 0
-3 -9 0
-3 -10 0
-3 -11 0
-3 -12 0
-3 -13 0
-3 -14 0
-3 -15 0
-3 -16 0
-3 -17 0
-3 -18 0
-3 -19 0
-3 -20 0
-3 -21 0
-3 -22 0
-3 -23 0
-3 -24 0
-3 -301 0
-4 -5 0
-4 -6 0
-4 -7 0
-4 -8 0
-4 -9 0
-4 -10 0
-4 -11 0
-4 -12 0
-4 -13 0
-4 -14 0
-4 -15 0
-4 -16 0
-4 -17 0
-4 -18 0
-4 -19 0
-4 -20 0
-4 -21 0
-4 -22 0
-4 -23 0
-4 -24 0
-4 -301 0
-5 -6 0
-5 -7 0
-5 -8 0
-5 -9 0
-5 -10 0
-5 -11 0
-5 -12 0
-5 -13 0
-5 -14 0
-5 -15 0
-5 -16 0
-5 -17 0
-5 -18 0
-5 -19 0
-5 -20 0
-5 -21 0
-5 -22 0
-5 -23 0
-5 -24 0
-5 -301 0
-6 -7 0
-6 -8 0
-6 -9 0
-6 -10 0
-6 -11 0
-6 -12 0
-6 -13 0
-6 -14 0
-6 -15 0
-6 -16 0
-6 -17 0
-6 -18 0
-6 -19 0
-6 -20 0
-6 -21 0
-6 -22 0
-6 -23 0
-6 -24 0
-6 -301 0
-7 -8 0
-7 -9 0
-7 -10 0
-7 -11 0
-7 -12 0
-7 -13 0
-7 -14 0
-7 -15 0
-7 -16 0
-7 -17 0
-7 -18 0
-7 -19 0
-7 -20 0
-7 -21 0
-7 -22 0
-7 -23 0
-7 -24 0
-7 -301 0
-8 -9 0
-8 -10 0
-8 -11 0
-8 -12 0
-8 -13 0
-8 -14 0
-8 -15 0
-8 -16 0
-8 -17 0
-8 -18 0
-8 -19 0
-8 -20 0
-8 -21 0
-8 -22 0
-8 -23 0
-8 -24 0
-8 -301 0
-9 -10 0
-9 -11 0
-9 -12 0
-9 -13 0
-9 -14 0
-9 -15 0
-9 -16 0
-9 -17 0
-9 -18 0
-9 -19 0
-9 -20 0
-9 -21 0
-9 -22 0
-9 -23 0
-9 -24 0
-9 -301 0
-10 -11 0
-10 -12 0
-10 -13 0
-10 -14 0
-10 -15 0
-10 -16 0
-10 -17 0
-10 -18 0
-10 -19 0
-10 -20 0
-10 -21 0
-10 -22 0
-10 -23 0
-10 -24 0
-10 -301 0
-11 -12 0
-11 -13 0
-11 -14 0
-11 -15 0
-11 -16 0
-11 -17 0
-11 -18 0
-11 -19 0
-11 -20 0
-11 -21 0
-11 -22 0
-11 -23 0
-11 -24 0
-11 -301 0
-12 -13 0
-12 -14 0
-12 -15 0
-12 -16 0
-12 -17 0
-12 -18 0
-12 -19 0
-12 -20 0
-12 -21 0
-12 -22 0
-12 -23 0
-12 -24 0
-12 -301 0
-13 -14 0
-13 -15 0
-13 -16 0
-13 -17 0
-13 -18 0
-13 -19 0
-13 -20 0
-13 -21 0
-13 -22 0
-13 -23 0
-13 -24 0
-13 -301 0
-14 -15 0
-14 -16 0
-14 -17 0
-14 -18 0
-14 -19 0
-14 -20 0
-14 -21 0
-14 -22 0
-14 -23 0
-14 -24 0
-14 -301 0
-15 -16 0
-15 -17 0
-15 -18 0
-15 -19 0
-15 -20 0
-15 -21 0
-15 -22 0
-15 -23 0
-15 -24 0
-15 -301 0
-16 -17 0
-16 -18 0
-16 -19 0
-16 -20 0
-16 -21 0
-16 -22 0
-16 -23 0
-16 -24 0
-16 -301 0
-17 -18 0
-17 -19 0
-17 -20 0
-17 -21 0
-17 -22 0
-17 -23 0
-17 -24 0
-17 -301 0
-18 -19 0
-18 -20 0
-18 -21 0
-18 -22 0
-18 -23 0
-18 -24 0
-18 -301 0
-19 -20 0
-19 -21 0
-19 -22 0
-19 -23 0
-19 -24 0
-19 -301 0
-20 -21 0
-20 -22 0
-20 -23 0
-20 -24 0
-20 -301 0
-21 -22 0
-21 -23 0
-21 -24 0
-21 -301 0
-22 -23 0
-22 -24 0
-22 -301 0
-23 -24 0
-23 -301 0
-24 -301 0
1 25 26 27 28 29 30 31 32 33 34 35 36 37 38 39 40 41 42 43 44 45 46 47 302 0
-1 -25 0
-1 -26 0
-1 -27 0
-1 -28 0
-1 -29 0
-1 -30 0
-1 -31 0
-1 -32 0
-1 -33 0
-1 -34 0
-1 -35 0
-1 -36 0
-1 -37 0
-1 -38 0
-1 -39 0
-1 -40 0
-1 -41 0
-1 -42 0
-1 -43 0
-1 -44 0
-1 -45 0
-1 -46 0
-1 -47 0
-1 -302 0
-25 -26 0
-25 -27 0
-25 -28 0
-25 -29 0
-25 -30 0
-25 -31 0
-25 -32 0
-25 -33 0
-25 -34 0
-25 -35 0
-25 -36 0
-25 -37 0
-25 -38 0
-25 -39 0
-25 -40 0
-25 -41 0
-25 -42 0
-25 -43 0
-25 -44 0
-25 -45 0
-25 -46 0
-25 -47 0
-25 -302 0
-26 -27 0
-26 -28 0
-26 -29 0
-26 -30 0
-26 -31 0
-26 -32 0
-26 -33 0
-26 -34 0
-26 -35 0
-26 -36 0
-26 -37 0
-26 -38 0
-26 -39 0
-26 -40 0
-26 -41 0
-26 -42 0
-26 -43 0
-26 -44 0
-26 -45 0
-26 -46 0
-26 -47 0
-26 -302 0
-27 -28 0
-27 -29 0
-27 -30 0
-27 -31 0
-27 -32 0
-27 -33 0
-27 -34 0
-27 -35 0
-27 -36 0
-27 -37 0
-27 -38 0
-27 -39 0
-27 -40 0
-27 -41 0
-27 -42 0
-27 -43 0
-27 -44 0
-27 -45 0
-27 -46 0
-27 -47 0
-27 -302 0
-28 -29 0
-28 -30 0
-28 -31 0
-28 -32 0
-28 -33 0
-28 -34 0
-28 -35 0
-28 -36 0
-28 -37 0
-28 -38 0
-28 -39 0
-28 -40 0
-28 -41 0
-28 -42 0
-28 -43 0
-28 -44 0
-28 -45 0
-28 -46 0
-28 -47 0
-28 -302 0
-29 -30 0
-29 -31 0
-29 -32 0
-29 -33 0
-29 -34 0
-29 -35 0
-29 -36 0
-29 -37 0
-29 -38 0
-29 -39 0
-29 -40 0
-29 -41 0
-29 -42 0
-29 -43 0
-29 -44 0
-29 -45 0
-29 -46 0
-29 -47 0
-29 -302 0
-30 -31 0
-30 -32 0
-30 -33 0
-30 -34 0
-30 -35 0
-30 -36 0
-30 -37 0
-30 -38 0
-30 -39 0
-30 -40 0
-30 -41 0
-30 -42 0
-30 -43 0
-30 -44 0
-30 -45 0
-30 -46 0
-30 -47 0
-30 -302 0
-31 -32 0
-31 -33 0
-31 -34 0
-31 -35 0
-31 -36 0
-31 -37 0
-31 -38 0
-31 -39 0
-31 -40 0
-31 -41 0
-31 -42 0
-31 -43 0
-31 -44 0
-31 -45 0
-31 -46 0
-31 -47 0
-31 -302 0
-32 -33 0
-32 -34 0
-32 -35 0
-32 -36 0
-32 -37 0
-32 -38 0
-32 -39 0
-32 -40 0
-32 -41 0
-32 -42 0
-32 -43 0
-32 -44 0
-32 -45 0
-32 -46 0
-32 -47 0
-32 -302 0
-33 -34 0
-33 -35 0
-33 -36 0
-33 -37 0
-33 -38 0
-33 -39 0
-33 -40 0
-33 -41 0
-33 -42 0
-33 -43 0
-33 -44 0
-33 -45 0
-33 -46 0
-33 -47 0
-33 -302 0
-34 -35 0
-34 -36 0
-34 -37 0
-34 -38 0
-34 -39 0
-34 -40 0
-34 -41 0
-34 -42 0
-34 -43 0
-34 -44 0
-34 -45 0
-34 -46 0
-34 -47 0
-34 -302 0
-35 -36 0
-35 -37 0
-35 -38 0
-35 -39 0
-35 -40 0
-35 -41 0
-35 -42 0
-35 -43 0
-35 -44 0
-35 -45 0
-35 -46 0
-35 -47 0
-35 -302 0
-36 -37 0
-36 -38 0
-36 -39 0
-36 -40 0
-36 -41 0
-36 -42 0
-36 -43 0
-36 -44 0
-36 -45 0
-36 -46 0
-36 -47 0
-36 -302 0
-37 -38 0
-37 -39 0
-37 -40 0
-37 -41 0
-37 -42 0
-37 -43 0
-37 -44 0
-37 -45 0
-37 -46 0
-37 -47 0
-37 -302 0
-38 -39 0
-38 -40 0
-38 -41 0
-38 -42 0
-38 -43 0
-38 -44 0
-38 -45 0
-38 -46 0
-38 -47 0
-38 -302 0
-39 -40 0
-39 -41 0
-39 -42 0
-39 -43 0
-39 -44 0
-39 -45 0
-39 -46 0
-39 -47 0
-39 -302 0
-40 -41 0
-40 -42 0
-40 -43 0
-40 -44 0
-40 -45 0
-40 -46 0
-40 -47 0
-40 -302 0
-41 -42 0
-41 -43 0
-41 -44 0
-41 -45 0
-41 -46 0
-41 -47 0
-41 -302 0
-42 -43 0
-42 -44 0
-42 -45 0
-42 -46 0
-42 -47 0
-42 -302 0
-43 -44 0
-43 -45 0
-43 -46 0
-43 -47 0
-43 -302 0
-44 -45 0
-44 -46 0
-44 -47 0
-44 -302 0
-45 -46 0
-45 -47 0
-45 -302 0
-46 -47 0
-46 -302 0
-47 -302 0
2 25 48 49 50 51 52 53 54 55 56 57 58 59 60 61 62 63 64 65 66 67 68 69 303 0
-2 -25 0
-2 -48 0
-2 -49 0
-2 -50 0
-2 -51 0
-2 -52 0
-2 -53 0
-2 -54 0
-2 -55 0
-2 -56 0
-2 -57 0
-2 -58 0
-2 -59 0
-2 -60 0
-2 -61 0
-2 -62 0
-2 -63 0
-2 -64 0
-2 -65 0
-2 -66 0
-2 -67 0
-2 -68 0
-2 -69 0
-2 -303 0
-25 -48 0
-25 -49 0
-25 -50 0
-25 -51 0
-25 -52 0
-25 -53 0
-25 -54 0
-25 -55 0
-25 -56 0
-25 -57 0
-25 -58 0
-25 -59 0
-25 -60 0
-25 -61 0
-25 -62 0
-25 -63 0
-25 -64 0
-25 -65 0
-25 -66 0
-25 -67 0
-25 -68 0
-25 -69 0
-25 -303 0
-48 -49 0
-48 -50 0
-48 -51 0
-48 -52 0
-48 -53 0
-48 -54 0
-48 -55 0
-48 -56 0
-48 -57 0
-48 -58 0
-48 -59 0
-48 -60 0
-48 -61 0
-48 -62 0
-48 -63 0
-48 -64 0
-48 -65 0
-48 -66 0
-48 -67 0
-48 -68 0
-48 -69 0
-48 -303 0
-49 -50 0
-49 -51 0
-49 -52 0
-49 -53 0
-49 -54 0
-49 -55 0
-49 -56 0
-49 -57 0
-49 -58 0
-49 -59 0
-49 -60 0
-49 -61 0
-49 -62 0
-49 -63 0
-49 -64 0
-49 -65 0
-49 -66 0
-49 -67 0
-49 -68 0
-49 -69 0
-49 -303 0
-50 -51 0
-50 -52 0
-50 -53 0
-50 -54 0
-50 -55 0
-50 -56 0
-50 -57 0
-50 -58 0
-50 -59 0
-50 -60 0
-50 -61 0
-50 -62 0
-50 -63 0
-50 -64 0
-50 -65 0
-50 -66 0
-50 -67 0
-50 -68 0
-50 -69 0
-50 -303 0
-51 -52 0
-51 -53 0
-51 -54 0
-51 -55 0
-51 -56 0
-51 -57 0
-51 -58 0
-51 -59 0
-51 -60 0
-51 -61 0
-51 -62 0
-51 -63 0
-51 -64 0
-51 -65 0
-51 -66 0
-51 -67 0
-51 -68 0
-51 -69 0
-51 -303 0
-52 -53 0
-52 -54 0
-52 -55 0
-52 -56 0
-52 -57 0
-52 -58 0
-52 -59 0
-52 -60 0
-52 -61 0
-52 -62 0
-52 -63 0
-52 -64 0
-52 -65 0
-52 -66 0
-52 -67 0
-52 -68 0
-52 -69 0
-52 -303 0
-53 -54 0
-53 -55 0
-53 -56 0
-53 -57 0
-53 -58 0
-53 -59 0
-53 -60 0
-53 -61 0
-53 -62 0
-53 -63 0
-53 -64 0
-53 -65 0
-53 -66 0
-53 -67 0
-53 -68 0
-53 -69 0
-53 -303 0
-54 -55 0
-54 -56 0
-54 -57 0
-54 -58 0
-54 -59 0
-54 -60 0
-54 -61 0
-54 -62 0
-54 -63 0
-54 -64 0
-54 -65 0
-54 -66 0
-54 -67 0
-54 -68 0
-54 -69 0
-54 -303 0
-55 -56 0
-55 -57 0
-55 -58 0
-55 -59 0
-55 -60 0
-55 -61 0
-55 -62 0
-55 -63 0
-55 -64 0
-55 -65 0
-55 -66 0
-55 -67 0
-55 -68 0
-55 -69 0
-55 -303 0
-56 -57 0
-56 -58 0
-56 -59 0
-56 -60 0
-56 -61 0
-56 -62 0
-56 -63 0
-56 -64 0
-56 -65 0
-56 -66 0
-56 -67 0
-56 -68 0
-56 -69 0
-56 -303 0
-57 -58 0
-57 -59 0
-57 -60 0
-57 -61 0
-57 -62 0
-57 -63 0
-57 -64 0
-57 -65 0
-57 -66 0
-57 -67 0
-57 -68 0
-57 -69 0
-57 -303 0
-58 -59 0
-58 -60 0
-58 -61 0
-58 -62 0
-58 -63 0
-58 -64 0
-58 -65 0
-58 -66 0
-58 -67 0
-58 -68 0
-58 -69 0
-58 -303 0
-59 -60 0
-59 -61 0
-59 -62 0
-59 -63 0
-59 -64 0
-59 -65 0
-59 -66 0
-59 -67 0
-59 -68 0
-59 -69 0
-59 -303 0
-60 -61 0
-60 -62 0
-60 -63 0
-60 -64 0
-60 -65 0
-60 -66 0
-60 -67 0
-60 -68 0
-60 -69 0
-60 -303 0
-61 -62 0
-61 -63 0
-61 -64 0
-61 -65 0
-61 -66 0
-61 -67 0
-61 -68 0
-61 -69 0
-61 -303 0
-62 -63 0
-62 -64 0
-62 -65 0
-62 -66 0
-62 -67 0
-62 -68 0
-62 -69 0
-62 -303 0
-63 -64 0
-63 -65 0
-63 -66 0
-63 -67 0
-63 -68 0
-63 -69 0
-63 -303 0
-64 -65 0
-64 -66 0
-64 -67 0
-64 -68 0
-64 -69 0
-64 -303 0
-65 -66 0
-65 -67 0
-65 -68 0
-65 -69 0
-65 -303 0
-66 -67 0
-66 -68 0
-66 -69 0
-66 -303 0
-67 -68 0
-67 -69 0
-67 -303 0
-68 -69 0
-68 -303 0
-69 -303 0
3 26 48 70 71 72 73 74 75 76 77 78 79 80 81 82 83 84 85 86 87 88 89 90 304 0
-3 -26 0
-3 -48 0
-3 -70 0
-3 -71 0
-3 -72 0
-3 -73 0
-3 -74 0
-3 -75 0
-3 -76 0
-3 -77 0
-3 -78 0
-3 -79 0
-3 -80 0
-3 -81 0
-3 -82 0
-3 -83 0
-3 -84 0
-3 -85 0
-3 -86 0
-3 -87 0
-3 -88 0
-3 -89 0
-3 -90 0
-3 -304 0
-26 -48 0
-26 -70 0
-26 -71 0
-26 -72 0
-26 -73 0
-26 -74 0
-26 -75 0
-26 -76 0
-26 -77 0
-26 -78 0
-26 -79 0
-26 -80 0
-26 -81 0
-26 -82 0
-26 -83 0
-26 -84 0
-26 -85 0
-26 -86 0
-26 -87 0
-26 -88 0
-26 -89 0
-26 -90 0
-26 -304 0
-48 -70 0
-48 -71 0
-48 -72 0
-48 -73 0
-48 -74 0
-48 -75 0
-48 -76 0
-48 -77 0
-48 -78 0
-48 -79 0
-48 -80 0
-48 -81 0
-48 -82 0
-48 -83 0
-48 -84 0
-48 -85 0
-48 -86 0
-48 -87 0
-48 -88 0
-48 -89 0
-48 -90 0
-48 -304 0
-70 -71 0
-70 -72 0
-70 -73 0
-70 -74 0
-70 -75 0
-70 -76 0
-70 -77 0
-70 -78 0
-70 -79 0
-70 -80 0
-70 -81 0
-70 -82 0
-70 -83 0
-70 -84 0
-70 -85 0
-70 -86 0
-70 -87 0
-70 -88 0
-70 -89 0
-70 -90 0
-70 -304 0
-71 -72 0
-71 -73 0
-71 -74 0
-71 -75 0
-71 -76 0
-71 -77 0
-71 -78 0
-71 -79 0
-71 -80 0
-71 -81 0
-71 -82 0
-71 -83 0
-71 -84 0
-71 -85 0
-71 -86 0
-71 -87 0
-71 -88 0
-71 -89 0
-71 -90 0
-71 -304 0
-72 -73 0
-72 -74 0
-72 -75 0
-72 -76 0
-72 -77 0
-72 -78 0
-72 -79 0
-72 -80 0
-72 -81 0
-72 -82 0
-72 -83 0
-72 -84 0
-72 -85 0
-72 -86 0
-72 -87 0
-72 -88 0
-72 -89 0
-72 -90 0
-72 -304 0
-73 -74 0
-73 -75 0
-73 -76 0
-73 -77 0
-73 -78 0
-73 -79 0
-73 -80 0
-73 -81 0
-73 -82 0
-73 -83 0
-73 -84 0
-73 -85 0
-73 -86 0
-73 -87 0
-73 -88 0
-73 -89 0
-73 -90 0
-73 -304 0
-74 -75 0
-74 -76 0
-74 -77 0
-74 -78 0
-74 -79 0
-74 -80 0
-74 -81 0
-74 -82 0
-74 -83 0
-74 -84 0
-74 -85 0
-74 -86 0
-74 -87 0
-74 -88 0
-74 -89 0
-74 -90 0
-74 -304 0
-75 -76 0
-75 -77 0
-75 -78 0
-75 -79 0
-75 -80 0
-75 -81 0
-75 -82 0
-75 -83 0
-75 -84 0
-75 -85 0
-75 -86 0
-75 -87 0
-75 -88 0
-75 -89 0
-75 -90 0
-75 -304 0
-76 -77 0
-76 -78 0
-76 -79 0
-76 -80 0
-76 -81 0
-76 -82 0
-76 -83 0
-76 -84 0
-76 -85 0
-76 -86 0
-76 -87 0
-76 -88 0
-76 -89 0
-76 -90 0
-76 -304 0
-77 -78 0
-77 -79 0
-77 -80 0
-77 -81 0
-77 -82 0
-77 -83 0
-77 -84 0
-77 -85 0
-77 -86 0
-77 -87 0
-77 -88 0
-77 -89 0
-77 -90 0
-77 -304 0
-78 -79 0
-78 -80 0
-78 -81 0
-78 -82 0
-78 -83 0
-78 -84 0
-78 -85 0
-78 -86 0
-78 -87 0
-78 -88 0
-78 -89 0
-78 -90 0
-78 -304 0
-79 -80 0
-79 -81 0
-79 -82 0
-79 -83 0
-79 -84 0
-79 -85 0
-79 -86 0
-79 -87 0
-79 -88 0
-79 -89 0
-79 -90 0
-79 -304 0
-80 -81 0
-80 -82 0
-80 -83 0
-80 -84 0
-80 -85 0
-80 -86 0
-80 -87 0
-80 -88 0
-80 -89 0
-80 -90 0
-80 -304 0
-81 -82 0
-81 -83 0
-81 -84 0
-81 -85 0
-81 -86 0
-81 -87 0
-81 -88 0
-81 -89 0
-81 -90 0
-81 -304 0
-82 -83 0
-82 -84 0
-82 -85 0
-82 -86 0
-82 -87 0
-82 -88 0
-82 -89 0
-82 -90 0
-82 -304 0
-83 -84 0
-83 -85 0
-83 -86 0
-83 -87 0
-83 -88 0
-83 -89 0
-83 -90 0
-83 -304 0
-84 -85 0
-84 -86 0
-84 -87 0
-84 -88 0
-84 -89 0
-84 -90 0
-84 -304 0
-85 -86 0
-85 -87 0
-85 -88 0
-85 -89 0
-85 -90 0
-85 -304 0
-86 -87 0
-86 -88 0
-86 -89 0
-86 -90 0
-86 -304 0
-87 -88 0
-87 -89 0
-87 -90 0
-87 -304 0
-88 -89 0
-88 -90 0
-88 -304 0
-89 -90 0
-89 -304 0
-90 -304 0
4 27 49 70 91 92 93 94 95 96 97 98 99 100 101 102 103 104 105 106 107 108 109 110 305 0
-4 -27 0
-4 -49 0
-4 -70 0
-4 -91 0
-4 -92 0
-4 -93 0
-4 -94 0
-4 -95 0
-4 -96 0
-4 -97 0
-4 -98 0
-4 -99 0
-4 -100 0
-4 -101 0
-4 -102 0
-4 -103 0
-4 -104 0
-4 -105 0
-4 -106 0
-4 -107 0
-4 -108 0
-4 -109 0
-4 -110 0
-4 -305 0
-27 -49 0
-27 -70 0
-27 -91 0
-27 -92 0
-27 -93 0
-27 -94 0
-27 -95 0
-27 -96 0
-27 -97 0
-27 -98 0
-27 -99 0
-27 -100 0
-27 -101 0
-27 -102 0
-27 -103 0
-27 -104 0
-27 -105 0
-27 -106 0
-27 -107 0
-27 -108 0
-27 -109 0
-27 -110 0
-27 -305 0
-49 -70 0
-49 -91 0
-49 -92 0
-49 -93 0
-49 -94 0
-49 -95 0
-49 -96 0
-49 -97 0
-49 -98 0
-49 -99 0
-49 -100 0
-49 -101 0
-49 -102 0
-49 -103 0
-49 -104 0
-49 -105 0
-49 -106 0
-49 -107 0
-49 -108 0
-49 -109 0
-49 -110 0
-49 -305 0
-70 -91 0
-70 -92 0
-70 -93 0
-70 -94 0
-70 -95 0
-70 -96 0
-70 -97 0
-70 -98 0
-70 -99 0
-70 -100 0
-70 -101 0
-70 -102 0
-70 -103 0
-70 -104 0
-70 -105 0
-70 -106 0
-70 -107 0
-70 -108 0
-70 -109 0
-70 -110 0
-70 -305 0
-91 -92 0
-91 -93 0
-91 -94 0
-91 -95 0
-91 -96 0
-91 -97 0
-91 -98 0
-91 -99 0
-91 -100 0
-91 -101 0
-91 -102 0
-91 -103 0
-91 -104 0
-91 -105 0
-91 -106 0
-91 -107 0
-91 -108 0
-91 -109 0
-91 -110 0
-91 -305 0
-92 -93 0
-92 -94 0
-92 -95 0
-92 -96 0
-92 -97 0
-92 -98 0
-92 -99 0
-92 -100 0
-92 -101 0
-92 -102 0
-92 -103 0
-92 -104 0
-92 -105 0
-92 -106 0
-92 -107 0
-92 -108 0
-92 -109 0
-92 -110 0
-92 -305 0
-93 -94 0
-93 -95 0
-93 -96 0
-93 -97 0
-93 -98 0
-93 -99 0
-93 -100 0
-93 -101 0
-93 -102 0
-93 -103 0
-93 -104 0
-93 -105 0
-93 -106 0
-93 -107 0
-93 -108 0
-93 -109 0
-93 -110 0
-93 -305 0
-94 -95 0
-94 -96 0
-94 -97 0
-94 -98 0
-94 -99 0
-94 -100 0
-94 -101 0
-94 -102 0
-94 -103 0
-94 -104 0
-94 -105 0
-94 -106 0
-94 -107 0
-94 -108 0
-94 -109 0
-94 -110 0
-94 -305 0
-95 -96 0
-95 -97 0
-95 -98 0
-95 -99 0
-95 -100 0
-95 -101 0
-95 -102 0
-95 -103 0
-95 -104 0
-95 -105 0
-95 -106 0
-95 -107 0
-95 -108 0
-95 -109 0
-95 -110 0
-95 -305 0
-96 -97 0
-96 -98 0
-96 -99 0
-96 -100 0
-96 -101 0
-96 -102 0
-96 -103 0
-96 -104 0
-96 -105 0
-96 -106 0
-96 -107 0
-96 -108 0
-96 -109 0
-96 -110 0
-96 -305 0
-97 -98 0
-97 -99 0
-97 -100 0
-97 -101 0
-97 -102 0
-97 -103 0
-97 -104 0
-97 -105 0
-97 -106 0
-97 -107 0
-97 -108 0
-97 -109 0
-97 -110 0
-97 -305 0
-98 -99 0
-98 -100 0
-98 -101 0
-98 -102 0
-98 -103 0
-98 -104 0
-98 -105 0
-98 -106 0
-98 -107 0
-98 -108 0
-98 -109 0
-98 -110 0
-98 -305 0
-99 -100 0
-99 -101 0
-99 -102 0
-99 -103 0
-99 -104 0
-99 -105 0
-99 -106 0
-99 -107 0
-99 -108 0
-99 -109 0
-99 -110 0
-99 -305 0
-100 -101 0
-100 -102 0
-100 -103 0
-100 -104 0
-100 -105 0
-100 -106 0
-100 -107 0
-100 -108 0
-100 -109 0
-100 -110 0
-100 -305 0
-101 -102 0
-101 -103 0
-101 -104 0
-101 -105 0
-101 -106 0
-101 -107 0
-101 -108 0
-101 -109 0
-101 -110 0
-101 -305 0
-102 -103 0
-102 -104 0
-102 -105 0
-102 -106 0
-102 -107 0
-102 -108 0
-102 -109 0
-102 -110 0
-102 -305 0
-103 -104 0
-103 -105 0
-103 -106 0
-103 -107 0
-103 -108 0
-103 -109 0
-103 -110 0
-103 -305 0
-104 -105 0
-104 -106 0
-104 -107 0
-104 -108 0
-104 -109 0
-104 -110 0
-104 -305 0
-105 -106 0
-105 -107 0
-105 -108 0
-105 -109 0
-105 -110 0
-105 -305 0
-106 -107 0
-106 -108 0
-106 -109 0
-106 -110 0
-106 -305 0
-107 -108 0
-107 -109 0
-107 -110 0
-107 -305 0
-108 -109 0
-108 -110 0
-108 -305 0
-109 -110 0
-109 -305 0
-110 -305 0
5 28 50 71 91 111 112 113 114 115 116 117 118 119 120 121 122 123 124 125 126 127 128 129 306 0
-5 -28 0
-5 -50 0
-5 -71 0
-5 -91 0
-5 -111 0
-5 -112 0
-5 -113 0
-5 -114 0
-5 -115 0
-5 -116 0
-5 -117 0
-5 -118 0
-5 -119 0
-5 -120 0
-5 -121 0
-5 -122 0
-5 -123 0
-5 -124 0
-5 -125 0
-5 -126 0
-5 -127 0
-5 -128 0
-5 -129 0
-5 -306 0
-28 -50 0
-28 -71 0
-28 -91 0
-28 -111 0
-28 -112 0
-28 -113 0
-28 -114 0
-28 -115 0
-28 -116 0
-28 -117 0
-28 -118 0
-28 -119 0
-28 -120 0
-28 -121 0
-28 -122 0
-28 -123 0
-28 -124 0
-28 -125 0
-28 -126 0
-28 -127 0
-28 -128 0
-28 -129 0
-28 -306 0
-50 -71 0
-50 -91 0
-50 -111 0
-50 -112 0
-50 -113 0
-50 -114 0
-50 -115 0
-50 -116 0
-50 -117 0
-50 -118 0
-50 -119 0
-50 -120 0
-50 -121 0
-50 -122 0
-50 -123 0
-50 -124 0
-50 -125 0
-50 -126 0
-50 -127 0
-50 -128 0
-50 -129 0
-50 -306 0
-71 -91 0
-71 -111 0
-71 -112 0
-71 -113 0
-71 -114 0
-71 -115 0
-71 -116 0
-71 -117 0
-71 -118 0
-71 -119 0
-71 -120 0
-71 -121 0
-71 -122 0
-71 -123 0
-71 -124 0
-71 -125 0
-71 -126 0
-71 -127 0
-71 -128 0
-71 -129 0
-71 -306 0
-91 -111 0
-91 -112 0
-91 -113 0
-91 -114 0
-91 -115 0
-91 -116 0
-91 -117 0
-91 -118 0
-91 -119 0
-91 -120 0
-91 -121 0
-91 -122 0
-91 -123 0
-91 -124 0
-91 -125 0
-91 -126 0
-91 -127 0
-91 -128 0
-91 -129 0
-91 -306 0
-111 -112 0
-111 -113 0
-111 -114 0
-111 -115 0
-111 -116 0
-111 -117 0
-111 -118 0
-111 -119 0
-111 -120 0
-111 -121 0
-111 -122 0
-111 -123 0
-111 -124 0
-111 -125 0
-111 -126 0
-111 -127 0
-111 -128 0
-111 -129 0
-111 -306 0
-112 -113 0
-112 -114 0
-112 -115 0
-112 -116 0
-112 -117 0
-112 -118 0
-112 -119 0
-112 -120 0
-112 -121 0
-112 -122 0
-112 -123 0
-112 -124 0
-112 -125 0
-112 -126 0
-112 -127 0
-112 -128 0
-112 -129 0
-112 -306 0
-113 -114 0
-113 -115 0
-113 -116 0
-113 -117 0
-113 -118 0
-113 -119 0
-113 -120 0
-113 -121 0
-113 -122 0
-113 -123 0
-113 -124 0
-113 -125 0
-113 -126 0
-113 -127 0
-113 -128 0
-113 -129 0
-113 -306 0
-114 -115 0
-114 -116 0
-114 -117 0
-114 -118 0
-114 -119 0
-114 -120 0
-114 -121 0
-114 -122 0
-114 -123 0
-114 -124 0
-114 -125 0
-114 -126 0
-114 -127 0
-114 -128 0
-114 -129 0
-114 -306 0
-115 -116 0
-115 -117 0
-115 -118 0
-115 -119 0
-115 -120 0
-115 -121 0
-115 -122 0
-115 -123 0
-115 -124 0
-115 -125 0
-115 -126 0
-115 -127 0
-115 -128 0
-115 -129 0
-115 -306 0
-116 -117 0
-116 -118 0
-116 -119 0
-116 -120 0
-116 -121 0
-116 -122 0
-116 -123 0
-116 -124 0
-116 -125 0
-116 -126 0
-116 -127 0
-116 -128 0
-116 -129 0
-116 -306 0
-117 -118 0
-117 -119 0
-117 -120 0
-117 -121 0
-117 -122 0
-117 -123 0
-117 -124 0
-117 -125 0
-117 -126 0
-117 -127 0
-117 -128 0
-117 -129 0
-117 -306 0
-118 -119 0
-118 -120 0
-118 -121 0
-118 -122 0
-118 -123 0
-118 -124 0
-118 -125 0
-118 -126 0
-118 -127 0
-118 -128 0
-118 -129 0
-118 -306 0
-119 -120 0
-119 -121 0
-119 -122 0
-119 -123 0
-119 -124 0
-119 -125 0
-119 -126 0
-119 -127 0
-119 -128 0
-119 -129 0
-119 -306 0
-120 -121 0
-120 -122 0
-120 -123 0
-120 -124 0
-120 -125 0
-120 -126 0
-120 -127 0
-120 -128 0
-120 -129 0
-120 -306 0
-121 -122 0
-121 -123 0
-121 -124 0
-121 -125 0
-121 -126 0
-121 -127 0
-121 -128 0
-121 -129 0
-121 -306 0
-122 -123 0
-122 -124 0
-122 -125 0
-122 -126 0
-122 -127 0
-122 -128 0
-122 -129 0
-122 -306 0
-123 -124 0
-123 -125 0
-123 -126 0
-123 -127 0
-123 -128 0
-123 -129 0
-123 -306 0
-124 -125 0
-124 -126 0
-124 -127 0
-124 -128 0
-124 -129 0
-124 -306 0
-125 -126 0
-125 -127 0
-125 -128 0
-125 -129 0
-125 -306 0
-126 -127 0
-126 -128 0
-126 -129 0
-126 -306 0
-127 -128 0
-127 -129 0
-127 -306 0
-128 -129 0
-128 -306 0
-129 -306 0
6 29 51 72 92 111 130 131 132 133 134 135 136 137 138 139 140 141 142 143 144 145 146 147 307 0
-6 -29 0
-6 -51 0
-6 -72 0
-6 -92 0
-6 -111 0
-6 -130 0
-6 -131 0
-6 -132 0
-6 -133 0
-6 -134 0
-6 -135 0
-6 -136 0
-6 -137 0
-6 -138 0
-6 -139 0
-6 -140 0
-6 -141 0
-6 -142 0
-6 -143 0
-6 -144 0
-6 -145 0
-6 -146 0
-6 -147 0
-6 -307 0
-29 -51 0
-29 -72 0
-29 -92 0
-29 -111 0
-29 -130 0
-29 -131 0
-29 -132 0
-29 -133 0
-29 -134 0
-29 -135 0
-29 -136 0
-29 -137 0
-29 -138 0
-29 -139 0
-29 -140 0
-29 -141 0
-29 -142 0
-29 -143 0
-29 -144 0
-29 -145 0
-29 -146 0
-29 -147 0
-29 -307 0
-51 -72 0
-51 -92 0
-51 -111 0
-51 -130 0
-51 -131 0
-51 -132 0
-51 -133 0
-51 -134 0
-51 -135 0
-51 -136 0
-51 -137 0
-51 -138 0
-51 -139 0
-51 -140 0
-51 -141 0
-51 -142 0
-51 -143 0
-51 -144 0
-51 -145 0
-51 -146 0
-51 -147 0
-51 -307 0
-72 -92 0
-72 -111 0
-72 -130 0
-72 -131 0
-72 -132 0
-72 -133 0
-72 -134 0
-72 -135 0
-72 -136 0
-72 -137 0
-72 -138 0
-72 -139 0
-72 -140 0
-72 -141 0
-72 -142 0
-72 -143 0
-72 -144 0
-72 -145 0
-72 -146 0
-72 -147 0
-72 -307 0
-92 -111 0
-92 -130 0
-92 -131 0
-92 -132 0
-92 -133 0
-92 -134 0
-92 -135 0
-92 -136 0
-92 -137 0
-92 -138 0
-92 -139 0
-92 -140 0
-92 -141 0
-92 -142 0
-92 -143 0
-92 -144 0
-92 -145 0
-92 -146 0
-92 -147 0
-92 -307 0
-111 -130 0
-111 -131 0
-111 -132 0
-111 -133 0
-111 -134 0
-111 -135 0
-111 -136 0
-111 -137 0
-111 -138 0
-111 -139 0
-111 -140 0
-111 -141 0
-111 -142 0
-111 -143 0
-111 -144 0
-111 -145 0
-111 -146 0
-111 -147 0
-111 -307 0
-130 -131 0
-130 -132 0
-130 -133 0
-130 -134 0
-130 -135 0
-130 -136 0
-130 -137 0
-130 -138 0
-130 -139 0
-130 -140 0
-130 -141 0
-130 -142 0
-130 -143 0
-130 -144 0
-130 -145 0
-130 -146 0
-130 -147 0
-130 -307 0
-131 -132 0
-131 -133 0
-131 -134 0
-131 -135 0
-131 -136 0
-131 -137 0
-131 -138 0
-131 -139 0
-131 -140 0
-131 -141 0
-131 -142 0
-131 -143 0
-131 -144 0
-131 -145 0
-131 -146 0
-131 -147 0
-131 -307 0
-132 -133 0
-132 -134 0
-132 -135 0
-132 -136 0
-132 -137 0
-132 -138 0
-132 -139 0
-132 -140 0
-132 -141 0
-132 -142 0
-132 -143 0
-132 -144 0
-132 -145 0
-132 -146 0
-132 -147 0
-132 -307 0
-133 -134 0
-133 -135 0
-133 -136 0
-133 -137 0
-133 -138 0
-133 -139 0
-133 -140 0
-133 -141 0
-133 -142 0
-133 -143 0
-133 -144 0
-133 -145 0
-133 -146 0
-133 -147 0
-133 -307 0
-134 -135 0
-134 -136 0
-134 -137 0
-134 -138 0
-134 -139 0
-134 -140 0
-134 -141 0
-134 -142 0
-134 -143 0
-134 -144 0
-134 -145 0
-134 -146 0
-134 -147 0
-134 -307 0
-135 -136 0
-135 -137 0
-135 -138 0
-135 -139 0
-135 -140 0
-135 -141 0
-135 -142 0
-135 -143 0
-135 -144 0
-135 -145 0
-135 -146 0
-135 -147 0
-135 -307 0
-136 -137 0
-136 -138 0
-136 -139 0
-136 -140 0
-136 -141 0
-136 -142 0
-136 -143 0
-136 -144 0
-136 -145 0
-136 -146 0
-136 -147 0
-136 -307 0
-137 -138 0
-137 -139 0
-137 -140 0
-137 -141 0
-137 -142 0
-137 -143 0
-137 -144 0
-137 -145 0
-137 -146 0
-137 -147 0
-137 -307 0
-138 -139 0
-138 -140 0
-138 -141 0
-138 -142 0
-138 -143 0
-138 -144 0
-138 -145 0
-138 -146 0
-138 -147 0
-138 -307 0
-139 -140 0
-139 -141 0
-139 -142 0
-139 -143 0
-139 -144 0
-139 -145 0
-139 -146 0
-139 -147 0
-139 -307 0
-140 -141 0
-140 -142 0
-140 -143 0
-140 -144 0
-140 -145 0
-140 -146 0
-140 -147 0
-140 -307 0
-141 -142 0
-141 -143 0
-141 -144 0
-141 -145 0
-141 -146 0
-141 -147 0
-141 -307 0
-142 -143 0
-142 -144 0
-142 -145 0
-142 -146 0
-142 -147 0
-142 -307 0
-143 -144 0
-143 -145 0
-143 -146 0
-143 -147 0
-143 -307 0
-144 -145 0
-144 -146 0
-144 -147 0
-144 -307 0
-145 -146 0
-145 -147 0
-145 -307 0
-146 -147 0
-146 -307 0
-147 -307 0
7 30 52 73 93 112 130 148 149 150 151 152 153 154 155 156 157 158 159 160 161 162 163 164 308 0
-7 -30 0
-7 -52 0
-7 -73 0
-7 -93 0
-7 -112 0
-7 -130 0
-7 -148 0
-7 -149 0
-7 -150 0
-7 -151 0
-7 -152 0
-7 -153 0
-7 -154 0
-7 -155 0
-7 -156 0
-7 -157 0
-7 -158 0
-7 -159 0
-7 -160 0
-7 -161 0
-7 -162 0
-7 -163 0
-7 -164 0
-7 -308 0
-30 -52 0
-30 -73 0
-30 -93 0
-30 -112 0
-30 -130 0
-30 -148 0
-30 -149 0
-30 -150 0
-30 -151 0
-30 -152 0
-30 -153 0
-30 -154 0
-30 -155 0
-30 -156 0
-30 -157 0
-30 -158 0
-30 -159 0
-30 -160 0
-30 -161 0
-30 -162 0
-30 -163 0
-30 -164 0
-30 -308 0
-52 -73 0
-52 -93 0
-52 -112 0
-52 -130 0
-52 -148 0
-52 -149 0
-52 -150 0
-52 -151 0
-52 -152 0
-52 -153 0
-52 -154 0
-52 -155 0
-52 -156 0
-52 -157 0
-52 -158 0
-52 -159 0
-52 -160 0
-52 -161 0
-52 -162 0
-52 -163 0
-52 -164 0
-52 -308 0
-73 -93 0
-73 -112 0
-73 -130 0
-73 -148 0
-73 -149 0
-73 -150 0
-73 -151 0
-73 -152 0
-73 -153 0
-73 -154 0
-73 -155 0
-73 -156 0
-73 -157 0
-73 -158 0
-73 -159 0
-73 -160 0
-73 -161 0
-73 -162 0
-73 -163 0
-73 -164 0
-73 -308 0
-93 -112 0
-93 -130 0
-93 -148 0
-93 -149 0
-93 -150 0
-93 -151 0
-93 -152 0
-93 -153 0
-93 -154 0
-93 -155 0
-93 -156 0
-93 -157 0
-93 -158 0
-93 -159 0
-93 -160 0
-93 -161 0
-93 -162 0
-93 -163 0
-93 -164 0
-93 -308 0
-112 -130 0
-112 -148 0
-112 -149 0
-112 -150 0
-112 -151 0
-112 -152 0
-112 -153 0
-112 -154 0
-112 -155 0
-112 -156 0
-112 -157 0
-112 -158 0
-112 -159 0
-112 -160 0
-112 -161 0
-112 -162 0
-112 -163 0
-112 -164 0
-112 -308 0
-130 -148 0
-130 -149 0
-130 -150 0
-130 -151 0
-130 -152 0
-130 -153 0
-130 -154 0
-130 -155 0
-130 -156 0
-130 -157 0
-130 -158 0
-130 -159 0
-130 -160 0
-130 -161 0
-130 -162 0
-130 -163 0
-130 -164 0
-130 -308 0
-148 -149 0
-148 -150 0
-148 -151 0
-148 -152 0
-148 -153 0
-148 -154 0
-148 -155 0
-148 -156 0
-148 -157 0
-148 -158 0
-148 -159 0
-148 -160 0
-148 -161 0
-148 -162 0
-148 -163 0
-148 -164 0
-148 -308 0
-149 -150 0
-149 -151 0
-149 -152 0
-149 -153 0
-149 -154 0
-149 -155 0
-149 -156 0
-149 -157 0
-149 -158 0
-149 -159 0
-149 -160 0
-149 -161 0
-149 -162 0
-149 -163 0
-149 -164 0
-149 -308 0
-150 -151 0
-150 -152 0
-150 -153 0
-150 -154 0
-150 -155 0
-150 -156 0
-150 -157 0
-150 -158 0
-150 -159 0
-150 -160 0
-150 -161 0
-150 -162 0
-150 -163 0
-150 -164 0
-150 -308 0
-151 -152 0
-151 -153 0
-151 -154 0
-151 -155 0
-151 -156 0
-151 -157 0
-151 -158 0
-151 -159 0
-151 -160 0
-151 -161 0
-151 -162 0
-151 -163 0
-151 -164 0
-151 -308 0
-152 -153 0
-152 -154 0
-152 -155 0
-152 -156 0
-152 -157 0
-152 -158 0
-152 -159 0
-152 -160 0
-152 -161 0
-152 -162 0
-152 -163 0
-152 -164 0
-152 -308 0
-153 -154 0
-153 -155 0
-153 -156 0
-153 -157 0
-153 -158 0
-153 -159 0
-153 -160 0
-153 -161 0
-153 -162 0
-153 -163 0
-153 -164 0
-153 -308 0
-154 -155 0
-154 -156 0
-154 -157 0
-154 -158 0
-154 -159 0
-154 -160 0
-154 -161 0
-154 -162 0
-154 -163 0
-154 -164 0
-154 -308 0
-155 -156 0
-155 -157 0
-155 -158 0
-155 -159 0
-155 -160 0
-155 -161 0
-155 -162 0
-155 -163 0
-155 -164 0
-155 -308 0
-156 -157 0
-156 -158 0
-156 -159 0
-156 -160 0
-156 -161 0
-156 -162 0
-156 -163 0
-156 -164 0
-156 -308 0
-157 -158 0
-157 -159 0
-157 -160 0
-157 -161 0
-157 -162 0
-157 -163 0
-157 -164 0
-157 -308 0
-158 -159 0
-158 -160 0
-158 -161 0
-158 -162 0
-158 -163 0
-158 -164 0
-158 -308 0
-159 -160 0
-159 -161 0
-159 -162 0
-159 -163 0
-159 -164 0
-159 -308 0
-160 -161 0
-160 -162 0
-160 -163 0
-160 -164 0
-160 -308 0
-161 -162 0
-161 -163 0
-161 -164 0
-161 -308 0
-162 -163 0
-162 -164 0
-162 -308 0
-163 -164 0
-163 -308 0
-164 -308 0
8 31 53 74 94 113 131 148 165 166 167 168 169 170 171 172 173 174 175 176 177 178 179 180 309 0
-8 -31 0
-8 -53 0
-8 -74 0
-8 -94 0
-8 -113 0
-8 -131 0
-8 -148 0
-8 -165 0
-8 -166 0
-8 -167 0
-8 -168 0
-8 -169 0
-8 -170 0
-8 -171 0
-8 -172 0
-8 -173 0
-8 -174 0
-8 -175 0
-8 -176 0
-8 -177 0
-8 -178 0
-8 -179 0
-8 -180 0
-8 -309 0
-31 -53 0
-31 -74 0
-31 -94 0
-31 -113 0
-31 -131 0
-31 -148 0
-31 -165 0
-31 -166 0
-31 -167 0
-31 -168 0
-31 -169 0
-31 -170 0
-31 -171 0
-31 -172 0
-31 -173 0
-31 -174 0
-31 -175 0
-31 -176 0
-31 -177 0
-31 -178 0
-31 -179 0
-31 -180 0
-31 -309 0
-53 -74 0
-53 -94 0
-53 -113 0
-53 -131 0
-53 -148 0
-53 -165 0
-53 -166 0
-53 -167 0
-53 -168 0
-53 -169 0
-53 -170 0
-53 -171 0
-53 -172 0
-53 -173 0
-53 -174 0
-53 -175 0
-53 -176 0
-53 -177 0
-53 -178 0
-53 -179 0
-53 -180 0
-53 -309 0
-74 -94 0
-74 -113 0
-74 -131 0
-74 -148 0
-74 -165 0
-74 -166 0
-74 -167 0
-74 -168 0
-74 -169 0
-74 -170 0
-74 -171 0
-74 -172 0
-74 -173 0
-74 -174 0
-74 -175 0
-74 -176 0
-74 -177 0
-74 -178 0
-74 -179 0
-74 -180 0
-74 -309 0
-94 -113 0
-94 -131 0
-94 -148 0
-94 -165 0
-94 -166 0
-94 -167 0
-94 -168 0
-94 -169 0
-94 -170 0
-94 -171 0
-94 -172 0
-94 -173 0
-94 -174 0
-94 -175 0
-94 -176 0
-94 -177 0
-94 -178 0
-94 -179 0
-94 -180 0
-94 -309 0
-113 -131 0
-113 -148 0
-113 -165 0
-113 -166 0
-113 -167 0
-113 -168 0
-113 -169 0
-113 -170 0
-113 -171 0
-113 -172 0
-113 -173 0
-113 -174 0
-113 -175 0
-113 -176 0
-113 -177 0
-113 -178 0
-113 -179 0
-113 -180 0
-113 -309 0
-131 -148 0
-131 -165 0
-131 -166 0
-131 -167 0
-131 -168 0
-131 -169 0
-131 -170 0
-131 -171 0
-131 -172 0
-131 -173 0
-131 -174 0
-131 -175 0
-131 -176 0
-131 -177 0
-131 -178 0
-131 -179 0
-131 -180 0
-131 -309 0
-148 -165 0
-148 -166 0
-148 -167 0
-148 -168 0
-148 -169 0
-148 -170 0
-148 -171 0
-148 -172 0
-148 -173 0
-148 -174 0
-148 -175 0
-148 -176 0
-148 -177 0
-148 -178 0
-148 -179 0
-148 -180 0
-148 -309 0
-165 -166 0
-165 -167 0
-165 -168 0
-165 -169 0
-165 -170 0
-165 -171 0
-165 -172 0
-165 -173 0
-165 -174 0
-165 -175 0
-165 -176 0
-165 -177 0
-165 -178 0
-165 -179 0
-165 -180 0
-165 -309 0
-166 -167 0
-166 -168 0
-166 -169 0
-166 -170 0
-166 -171 0
-166 -172 0
-166 -173 0
-166 -174 0
-166 -175 0
-166 -176 0
-166 -177 0
-166 -178 0
-166 -179 0
-166 -180 0
-166 -309 0
-167 -168 0
-167 -169 0
-167 -170 0
-167 -171 0
-167 -172 0
-167 -173 0
-167 -174 0
-167 -175 0
-167 -176 0
-167 -177 0
-167 -178 0
-167 -179 0
-167 -180 0
-167 -309 0
-168 -169 0
-168 -170 0
-168 -171 0
-168 -172 0
-168 -173 0
-168 -174 0
-168 -175 0
-168 -176 0
-168 -177 0
-168 -178 0
-168 -179 0
-168 -180 0
-168 -309 0
-169 -170 0
-169 -171 0
-169 -172 0
-169 -173 0
-169 -174 0
-169 -175 0
-169 -176 0
-169 -177 0
-169 -178 0
-169 -179 0
-169 -180 0
-169 -309 0
-170 -171 0
-170 -172 0
-170 -173 0
-170 -174 0
-170 -175 0
-170 -176 0
-170 -177 0
-170 -178 0
-170 -179 0
-170 -180 0
-170 -309 0
-171 -172 0
-171 -173 0
-171 -174 0
-171 -175 0
-171 -176 0
-171 -177 0
-171 -178 0
-171 -179 0
-171 -180 0
-171 -309 0
-172 -173 0
-172 -174 0
-172 -175 0
-172 -176 0
-172 -177 0
-172 -178 0
-172 -179 0
-172 -180 0
-172 -309 0
-173 -174 0
-173 -175 0
-173 -176 0
-173 -177 0
-173 -178 0
-173 -179 0
-173 -180 0
-173 -309 0
-174 -175 0
-174 -176 0
-174 -177 0
-174 -178 0
-174 -179 0
-174 -180 0
-174 -309 0
-175 -176 0
-175 -177 0
-175 -178 0
-175 -179 0
-175 -180 0
-175 -309 0
-176 -177 0
-176 -178 0
-176 -179 0
-176 -180 0
-176 -309 0
-177 -178 0
-177 -179 0
-177 -180 0
-177 -309 0
-178 -179 0
-178 -180 0
-178 -309 0
-179 -180 0
-179 -309 0
-180 -309 0
9 32 54 75 95 114 132 149 165 181 182 183 184 185 186 187 188 189 190 191 192 193 194 195 310 0
-9 -32 0
-9 -54 0
-9 -75 0
-9 -95 0
-9 -114 0
-9 -132 0
-9 -149 0
-9 -165 0
-9 -181 0
-9 -182 0
-9 -183 0
-9 -184 0
-9 -185 0
-9 -186 0
-9 -187 0
-9 -188 0
-9 -189 0
-9 -190 0
-9 -191 0
-9 -192 0
-9 -193 0
-9 -194 0
-9 -195 0
-9 -310 0
-32 -54 0
-32 -75 0
-32 -95 0
-32 -114 0
-32 -132 0
-32 -149 0
-32 -165 0
-32 -181 0
-32 -182 0
-32 -183 0
-32 -184 0
-32 -185 0
-32 -186 0
-32 -187 0
-32 -188 0
-32 -189 0
-32 -190 0
-32 -191 0
-32 -192 0
-32 -193 0
-32 -194 0
-32 -195 0
-32 -310 0
-54 -75 0
-54 -95 0
-54 -114 0
-54 -132 0
-54 -149 0
-54 -165 0
-54 -181 0
-54 -182 0
-54 -183 0
-54 -184 0
-54 -185 0
-54 -186 0
-54 -187 0
-54 -188 0
-54 -189 0
-54 -190 0
-54 -191 0
-54 -192 0
-54 -193 0
-54 -194 0
-54 -195 0
-54 -310 0
-75 -95 0
-75 -114 0
-75 -132 0
-75 -149 0
-75 -165 0
-75 -181 0
-75 -182 0
-75 -183 0
-75 -184 0
-75 -185 0
-75 -186 0
-75 -187 0
-75 -188 0
-75 -189 0
-75 -190 0
-75 -191 0
-75 -192 0
-75 -193 0
-75 -194 0
-75 -195 0
-75 -310 0
-95 -114 0
-95 -132 0
-95 -149 0
-95 -165 0
-95 -181 0
-95 -182 0
-95 -183 0
-95 -184 0
-95 -185 0
-95 -186 0
-95 -187 0
-95 -188 0
-95 -189 0
-95 -190 0
-95 -191 0
-95 -192 0
-95 -193 0
-95 -194 0
-95 -195 0
-95 -310 0
-114 -132 0
-114 -149 0
-114 -165 0
-114 -181 0
-114 -182 0
-114 -183 0
-114 -184 0
-114 -185 0
-114 -186 0
-114 -187 0
-114 -188 0
-114 -189 0
-114 -190 0
-114 -191 0
-114 -192 0
-114 -193 0
-114 -194 0
-114 -195 0
-114 -310 0
-132 -149 0
-132 -165 0
-132 -181 0
-132 -182 0
-132 -183 0
-132 -184 0
-132 -185 0
-132 -186 0
-132 -187 0
-132 -188 0
-132 -189 0
-132 -190 0
-132 -191 0
-132 -192 0
-132 -193 0
-132 -194 0
-132 -195 0
-132 -310 0
-149 -165 0
-149 -181 0
-149 -182 0
-149 -183 0
-149 -184 0
-149 -185 0
-149 -186 0
-149 -187 0
-149 -188 0
-149 -189 0
-149 -190 0
-149 -191 0
-149 -192 0
-149 -193 0
-149 -194 0
-149 -195 0
-149 -310 0
-165 -181 0
-165 -182 0
-165 -183 0
-165 -184 0
-165 -185 0
-165 -186 0
-165 -187 0
-165 -188 0
-165 -189 0
-165 -190 0
-165 -191 0
-165 -192 0
-165 -193 0
-165 -194 0
-165 -195 0
-165 -310 0
-181 -182 0
-181 -183 0
-181 -184 0
-181 -185 0
-181 -186 0
-181 -187 0
-181 -188 0
-181 -189 0
-181 -190 0
-181 -191 0
-181 -192 0
-181 -193 0
-181 -194 0
-181 -195 0
-181 -310 0
-182 -183 0
-182 -184 0
-182 -185 0
-182 -186 0
-182 -187 0
-182 -188 0
-182 -189 0
-182 -190 0
-182 -191 0
-182 -192 0
-182 -193 0
-182 -194 0
-182 -195 0
-182 -310 0
-183 -184 0
-183 -185 0
-183 -186 0
-183 -187 0
-183 -188 0
-183 -189 0
-183 -190 0
-183 -191 0
-183 -192 0
-183 -193 0
-183 -194 0
-183 -195 0
-183 -310 0
-184 -185 0
-184 -186 0
-184 -187 0
-184 -188 0
-184 -189 0
-184 -190 0
-184 -191 0
-184 -192 0
-184 -193 0
-184 -194 0
-184 -195 0
-184 -310 0
-185 -186 0
-185 -187 0
-185 -188 0
-185 -189 0
-185 -190 0
-185 -191 0
-185 -192 0
-185 -193 0
-185 -194 0
-185 -195 0
-185 -310 0
-186 -187 0
-186 -188 0
-186 -189 0
-186 -190 0
-186 -191 0
-186 -192 0
-186 -193 0
-186 -194 0
-186 -195 0
-186 -310 0
-187 -188 0
-187 -189 0
-187 -190 0
-187 -191 0
-187 -192 0
-187 -193 0
-187 -194 0
-187 -195 0
-187 -310 0
-188 -189 0
-188 -190 0
-188 -191 0
-188 -192 0
-188 -193 0
-188 -194 0
-188 -195 0
-188 -310 0
-189 -190 0
-189 -191 0
-189 -192 0
-189 -193 0
-189 -194 0
-189 -195 0
-189 -310 0
-190 -191 0
-190 -192 0
-190 -193 0
-190 -194 0
-190 -195 0
-190 -310 0
-191 -192 0
-191 -193 0
-191 -194 0
-191 -195 0
-191 -310 0
-192 -193 0
-192 -194 0
-192 -195 0
-192 -310 0
-193 -194 0
-193 -195 0
-193 -310 0
-194 -195 0
-194 -310 0
-195 -310 0
10 33 55 76 96 115 133 150 166 181 196 197 198 199 200 201 202 203 204 205 206 207 208 209 311 0
-10 -33 0
-10 -55 0
-10 -76 0
-10 -96 0
-10 -115 0
-10 -133 0
-10 -150 0
-10 -166 0
-10 -181 0
-10 -196 0
-10 -197 0
-10 -198 0
-10 -199 0
-10 -200 0
-10 -201 0
-10 -202 0
-10 -203 0
-10 -204 0
-10 -205 0
-10 -206 0
-10 -207 0
-10 -208 0
-10 -209 0
-10 -311 0
-33 -55 0
-33 -76 0
-33 -96 0
-33 -115 0
-33 -133 0
-33 -150 0
-33 -166 0
-33 -181 0
-33 -196 0
-33 -197 0
-33 -198 0
-33 -199 0
-33 -200 0
-33 -201 0
-33 -202 0
-33 -203 0
-33 -204 0
-33 -205 0
-33 -206 0
-33 -207 0
-33 -208 0
-33 -209 0
-33 -311 0
-55 -76 0
-55 -96 0
-55 -115 0
-55 -133 0
-55 -150 0
-55 -166 0
-55 -181 0
-55 -196 0
-55 -197 0
-55 -198 0
-55 -199 0
-55 -200 0
-55 -201 0
-55 -202 0
-55 -203 0
-55 -204 0
-55 -205 0
-55 -206 0
-55 -207 0
-55 -208 0
-55 -209 0
-55 -311 0
-76 -96 0
-76 -115 0
-76 -133 0
-76 -150 0
-76 -166 0
-76 -181 0
-76 -196 0
-76 -197 0
-76 -198 0
-76 -199 0
-76 -200 0
-76 -201 0
-76 -202 0
-76 -203 0
-76 -204 0
-76 -205 0
-76 -206 0
-76 -207 0
-76 -208 0
-76 -209 0
-76 -311 0
-96 -115 0
-96 -133 0
-96 -150 0
-96 -166 0
-96 -181 0
-96 -196 0
-96 -197 0
-96 -198 0
-96 -199 0
-96 -200 0
-96 -201 0
-96 -202 0
-96 -203 0
-96 -204 0
-96 -205 0
-96 -206 0
-96 -207 0
-96 -208 0
-96 -209 0
-96 -311 0
-115 -133 0
-115 -150 0
-115 -166 0
-115 -181 0
-115 -196 0
-115 -197 0
-115 -198 0
-115 -199 0
-115 -200 0
-115 -201 0
-115 -202 0
-115 -203 0
-115 -204 0
-115 -205 0
-115 -206 0
-115 -207 0
-115 -208 0
-115 -209 0
-115 -311 0
-133 -150 0
-133 -166 0
-133 -181 0
-133 -196 0
-133 -197 0
-133 -198 0
-133 -199 0
-133 -200 0
-133 -201 0
-133 -202 0
-133 -203 0
-133 -204 0
-133 -205 0
-133 -206 0
-133 -207 0
-133 -208 0
-133 -209 0
-133 -311 0
-150 -166 0
-150 -181 0
-150 -196 0
-150 -197 0
-150 -198 0
-150 -199 0
-150 -200 0
-150 -201 0
-150 -202 0
-150 -203 0
-150 -204 0
-150 -205 0
-150 -206 0
-150 -207 0
-150 -208 0
-150 -209 0
-150 -311 0
-166 -181 0
-166 -196 0
-166 -197 0
-166 -198 0
-166 -199 0
-166 -200 0
-166 -201 0
-166 -202 0
-166 -203 0
-166 -204 0
-166 -205 0
-166 -206 0
-166 -207 0
-166 -208 0
-166 -209 0
-166 -311 0
-181 -196 0
-181 -197 0
-181 -198 0
-181 -199 0
-181 -200 0
-181 -201 0
-181 -202 0
-181 -203 0
-181 -204 0
-181 -205 0
-181 -206 0
-181 -207 0
-181 -208 0
-181 -209 0
-181 -311 0
-196 -197 0
-196 -198 0
-196 -199 0
-196 -200 0
-196 -201 0
-196 -202 0
-196 -203 0
-196 -204 0
-196 -205 0
-196 -206 0
-196 -207 0
-196 -208 0
-196 -209 0
-196 -311 0
-197 -198 0
-197 -199 0
-197 -200 0
-197 -201 0
-197 -202 0
-197 -203 0
-197 -204 0
-197 -205 0
-197 -206 0
-197 -207 0
-197 -208 0
-197 -209 0
-197 -311 0
-198 -199 0
-198 -200 0
-198 -201 0
-198 -202 0
-198 -203 0
-198 -204 0
-198 -205 0
-198 -206 0
-198 -207 0
-198 -208 0
-198 -209 0
-198 -311 0
-199 -200 0
-199 -201 0
-199 -202 0
-199 -203 0
-199 -204 0
-199 -205 0
-199 -206 0
-199 -207 0
-199 -208 0
-199 -209 0
-199 -311 0
-200 -201 0
-200 -202 0
-200 -203 0
-200 -204 0
-200 -205 0
-200 -206 0
-200 -207 0
-200 -208 0
-200 -209 0
-200 -311 0
-201 -202 0
-201 -203 0
-201 -204 0
-201 -205 0
-201 -206 0
-201 -207 0
-201 -208 0
-201 -209 0
-201 -311 0
-202 -203 0
-202 -204 0
-202 -205 0
-202 -206 0
-202 -207 0
-202 -208 0
-202 -209 0
-202 -311 0
-203 -204 0
-203 -205 0
-203 -206 0
-203 -207 0
-203 -208 0
-203 -209 0
-203 -311 0
-204 -205 0
-204 -206 0
-204 -207 0
-204 -208 0
-204 -209 0
-204 -311 0
-205 -206 0
-205 -207 0
-205 -208 0
-205 -209 0
-205 -311 0
-206 -207 0
-206 -208 0
-206 -209 0
-206 -311 0
-207 -208 0
-207 -209 0
-207 -311 0
-208 -209 0
-208 -311 0
-209 -311 0
11 34 56 77 97 116 134 151 167 182 196 210 211 212 213 214 215 216 217 218 219 220 221 222 312 0
-11 -34 0
-11 -56 0
-11 -77 0
-11 -97 0
-11 -116 0
-11 -134 0
-11 -151 0
-11 -167 0
-11 -182 0
-11 -196 0
-11 -210 0
-11 -211 0
-11 -212 0
-11 -213 0
-11 -214 0
-11 -215 0
-11 -216 0
-11 -217 0
-11 -218 0
-11 -219 0
-11 -220 0
-11 -221 0
-11 -222 0
-11 -312 0
-34 -56 0
-34 -77 0
-34 -97 0
-34 -116 0
-34 -134 0
-34 -151 0
-34 -167 0
-34 -182 0
-34 -196 0
-34 -210 0
-34 -211 0
-34 -212 0
-34 -213 0
-34 -214 0
-34 -215 0
-34 -216 0
-34 -217 0
-34 -218 0
-34 -219 0
-34 -220 0
-34 -221 0
-34 -222 0
-34 -312 0
-56 -77 0
-56 -97 0
-56 -116 0
-56 -134 0
-56 -151 0
-56 -167 0
-56 -182 0
-56 -196 0
-56 -210 0
-56 -211 0
-56 -212 0
-56 -213 0
-56 -214 0
-56 -215 0
-56 -216 0
-56 -217 0
-56 -218 0
-56 -219 0
-56 -220 0
-56 -221 0
-56 -222 0
-56 -312 0
-77 -97 0
-77 -116 0
-77 -134 0
-77 -151 0
-77 -167 0
-77 -182 0
-77 -196 0
-77 -210 0
-77 -211 0
-77 -212 0
-77 -213 0
-77 -214 0
-77 -215 0
-77 -216 0
-77 -217 0
-77 -218 0
-77 -219 0
-77 -220 0
-77 -221 0
-77 -222 0
-77 -312 0
-97 -116 0
-97 -134 0
-97 -151 0
-97 -167 0
-97 -182 0
-97 -196 0
-97 -210 0
-97 -211 0
-97 -212 0
-97 -213 0
-97 -214 0
-97 -215 0
-97 -216 0
-97 -217 0
-97 -218 0
-97 -219 0
-97 -220 0
-97 -221 0
-97 -222 0
-97 -312 0
-116 -134 0
-116 -151 0
-116 -167 0
-116 -182 0
-116 -196 0
-116 -210 0
-116 -211 0
-116 -212 0
-116 -213 0
-116 -214 0
-116 -215 0
-116 -216 0
-116 -217 0
-116 -218 0
-116 -219 0
-116 -220 0
-116 -221 0
-116 -222 0
-116 -312 0
-134 -151 0
-134 -167 0
-134 -182 0
-134 -196 0
-134 -210 0
-134 -211 0
-134 -212 0
-134 -213 0
-134 -214 0
-134 -215 0
-134 -216 0
-134 -217 0
-134 -218 0
-134 -219 0
-134 -220 0
-134 -221 0
-134 -222 0
-134 -312 0
-151 -167 0
-151 -182 0
-151 -196 0
-151 -210 0
-151 -211 0
-151 -212 0
-151 -213 0
-151 -214 0
-151 -215 0
-151 -216 0
-151 -217 0
-151 -218 0
-151 -219 0
-151 -220 0
-151 -221 0
-151 -222 0
-151 -312 0
-167 -182 0
-167 -196 0
-167 -210 0
-167 -211 0
-167 -212 0
-167 -213 0
-167 -214 0
-167 -215 0
-167 -216 0
-167 -217 0
-167 -218 0
-167 -219 0
-167 -220 0
-167 -221 0
-167 -222 0
-167 -312 0
-182 -196 0
-182 -210 0
-182 -211 0
-182 -212 0
-182 -213 0
-182 -214 0
-182 -215 0
-182 -216 0
-182 -217 0
-182 -218 0
-182 -219 0
-182 -220 0
-182 -221 0
-182 -222 0
-182 -312 0
-196 -210 0
-196 -211 0
-196 -212 0
-196 -213 0
-196 -214 0
-196 -215 0
-196 -216 0
-196 -217 0
-196 -218 0
-196 -219 0
-196 -220 0
-196 -221 0
-196 -222 0
-196 -312 0
-210 -211 0
-210 -212 0
-210 -213 0
-210 -214 0
-210 -215 0
-210 -216 0
-210 -217 0
-210 -218 0
-210 -219 0
-210 -220 0
-210 -221 0
-210 -222 0
-210 -312 0
-211 -212 0
-211 -213 0
-211 -214 0
-211 -215 0
-211 -216 0
-211 -217 0
-211 -218 0
-211 -219 0
-211 -220 0
-211 -221 0
-211 -222 0
-211 -312 0
-212 -213 0
-212 -214 0
-212 -215 0
-212 -216 0
-212 -217 0
-212 -218 0
-212 -219 0
-212 -220 0
-212 -221 0
-212 -222 0
-212 -312 0
-213 -214 0
-213 -215 0
-213 -216 0
-213 -217 0
-213 -218 0
-213 -219 0
-213 -220 0
-213 -221 0
-213 -222 0
-213 -312 0
-214 -215 0
-214 -216 0
-214 -217 0
-214 -218 0
-214 -219 0
-214 -220 0
-214 -221 0
-214 -222 0
-214 -312 0
-215 -216 0
-215 -217 0
-215 -218 0
-215 -219 0
-215 -220 0
-215 -221 0
-215 -222 0
-215 -312 0
-216 -217 0
-216 -218 0
-216 -219 0
-216 -220 0
-216 -221 0
-216 -222 0
-216 -312 0
-217 -218 0
-217 -219 0
-217 -220 0
-217 -221 0
-217 -222 0
-217 -312 0
-218 -219 0
-218 -220 0
-218 -221 0
-218 -222 0
-218 -312 0
-219 -220 0
-219 -221 0
-219 -222 0
-219 -312 0
-220 -221 0
-220 -222 0
-220 -312 0
-221 -222 0
-221 -312 0
-222 -312 0
12 35 57 78 98 117 135 152 168 183 197 210 223 224 225 226 227 228 229 230 231 232 233 234 313 0
-12 -35 0
-12 -57 0
-12 -78 0
-12 -98 0
-12 -117 0
-12 -135 0
-12 -152 0
-12 -168 0
-12 -183 0
-12 -197 0
-12 -210 0
-12 -223 0
-12 -224 0
-12 -225 0
-12 -226 0
-12 -227 0
-12 -228 0
-12 -229 0
-12 -230 0
-12 -231 0
-12 -232 0
-12 -233 0
-12 -234 0
-12 -313 0
-35 -57 0
-35 -78 0
-35 -98 0
-35 -117 0
-35 -135 0
-35 -152 0
-35 -168 0
-35 -183 0
-35 -197 0
-35 -210 0
-35 -223 0
-35 -224 0
-35 -225 0
-35 -226 0
-35 -227 0
-35 -228 0
-35 -229 0
-35 -230 0
-35 -231 0
-35 -232 0
-35 -233 0
-35 -234 0
-35 -313 0
-57 -78 0
-57 -98 0
-57 -117 0
-57 -135 0
-57 -152 0
-57 -168 0
-57 -183 0
-57 -197 0
-57 -210 0
-57 -223 0
-57 -224 0
-57 -225 0
-57 -226 0
-57 -227 0
-57 -228 0
-57 -229 0
-57 -230 0
-57 -231 0
-57 -232 0
-57 -233 0
-57 -234 0
-57 -313 0
-78 -98 0
-78 -117 0
-78 -135 0
-78 -152 0
-78 -168 0
-78 -183 0
-78 -197 0
-78 -210 0
-78 -223 0
-78 -224 0
-78 -225 0
-78 -226 0
-78 -227 0
-78 -228 0
-78 -229 0
-78 -230 0
-78 -231 0
-78 -232 0
-78 -233 0
-78 -234 0
-78 -313 0
-98 -117 0
-98 -135 0
-98 -152 0
-98 -168 0
-98 -183 0
-98 -197 0
-98 -210 0
-98 -223 0
-98 -224 0
-98 -225 0
-98 -226 0
-98 -227 0
-98 -228 0
-98 -229 0
-98 -230 0
-98 -231 0
-98 -232 0
-98 -233 0
-98 -234 0
-98 -313 0
-117 -135 0
-117 -152 0
-117 -168 0
-117 -183 0
-117 -197 0
-117 -210 0
-117 -223 0
-117 -224 0
-117 -225 0
-117 -226 0
-117 -227 0
-117 -228 0
-117 -229 0
-117 -230 0
-117 -231 0
-117 -232 0
-117 -233 0
-117 -234 0
-117 -313 0
-135 -152 0
-135 -168 0
-135 -183 0
-135 -197 0
-135 -210 0
-135 -223 0
-135 -224 0
-135 -225 0
-135 -226 0
-135 -227 0
-135 -228 0
-135 -229 0
-135 -230 0
-135 -231 0
-135 -232 0
-135 -233 0
-135 -234 0
-135 -313 0
-152 -168 0
-152 -183 0
-152 -197 0
-152 -210 0
-152 -223 0
-152 -224 0
-152 -225 0
-152 -226 0
-152 -227 0
-152 -228 0
-152 -229 0
-152 -230 0
-152 -231 0
-152 -232 0
-152 -233 0
-152 -234 0
-152 -313 0
-168 -183 0
-168 -197 0
-168 -210 0
-168 -223 0
-168 -224 0
-168 -225 0
-168 -226 0
-168 -227 0
-168 -228 0
-168 -229 0
-168 -230 0
-168 -231 0
-168 -232 0
-168 -233 0
-168 -234 0
-168 -313 0
-183 -197 0
-183 -210 0
-183 -223 0
-183 -224 0
-183 -225 0
-183 -226 0
-183 -227 0
-183 -228 0
-183 -229 0
-183 -230 0
-183 -231 0
-183 -232 0
-183 -233 0
-183 -234 0
-183 -313 0
-197 -210 0
-197 -223 0
-197 -224 0
-197 -225 0
-197 -226 0
-197 -227 0
-197 -228 0
-197 -229 0
-197 -230 0
-197 -231 0
-197 -232 0
-197 -233 0
-197 -234 0
-197 -313 0
-210 -223 0
-210 -224 0
-210 -225 0
-210 -226 0
-210 -227 0
-210 -228 0
-210 -229 0
-210 -230 0
-210 -231 0
-210 -232 0
-210 -233 0
-210 -234 0
-210 -313 0
-223 -224 0
-223 -225 0
-223 -226 0
-223 -227 0
-223 -228 0
-223 -229 0
-223 -230 0
-223 -231 0
-223 -232 0
-223 -233 0
-223 -234 0
-223 -313 0
-224 -225 0
-224 -226 0
-224 -227 0
-224 -228 0
-224 -229 0
-224 -230 0
-224 -231 0
-224 -232 0
-224 -233 0
-224 -234 0
-224 -313 0
-225 -226 0
-225 -227 0
-225 -228 0
-225 -229 0
-225 -230 0
-225 -231 0
-225 -232 0
-225 -233 0
-225 -234 0
-225 -313 0
-226 -227 0
-226 -228 0
-226 -229 0
-226 -230 0
-226 -231 0
-226 -232 0
-226 -233 0
-226 -234 0
-226 -313 0
-227 -228 0
-227 -229 0
-227 -230 0
-227 -231 0
-227 -232 0
-227 -233 0
-227 -234 0
-227 -313 0
-228 -229 0
-228 -230 0
-228 -231 0
-228 -232 0
-228 -233 0
-228 -234 0
-228 -313 0
-229 -230 0
-229 -231 0
-229 -232 0
-229 -233 0
-229 -234 0
-229 -313 0
-230 -231 0
-230 -232 0
-230 -233 0
-230 -234 0
-230 -313 0
-231 -232 0
-231 -233 0
-231 -234 0
-231 -313 0
-232 -233 0
-232 -234 0
-232 -313 0
-233 -234 0
-233 -313 0
-234 -313 0
13 36 58 79 99 118 136 153 169 184 198 211 223 235 236 237 238 239 240 241 242 243 244 245 314 0
-13 -36 0
-13 -58 0
-13 -79 0
-13 -99 0
-13 -118 0
-13 -136 0
-13 -153 0
-13 -169 0
-13 -184 0
-13 -198 0
-13 -211 0
-13 -223 0
-13 -235 0
-13 -236 0
-13 -237 0
-13 -238 0
-13 -239 0
-13 -240 0
-13 -241 0
-13 -242 0
-13 -243 0
-13 -244 0
-13 -245 0
-13 -314 0
-36 -58 0
-36 -79 0
-36 -99 0
-36 -118 0
-36 -136 0
-36 -153 0
-36 -169 0
-36 -184 0
-36 -198 0
-36 -211 0
-36 -223 0
-36 -235 0
-36 -236 0
-36 -237 0
-36 -238 0
-36 -239 0
-36 -240 0
-36 -241 0
-36 -242 0
-36 -243 0
-36 -244 0
-36 -245 0
-36 -314 0
-58 -79 0
-58 -99 0
-58 -118 0
-58 -136 0
-58 -153 0
-58 -169 0
-58 -184 0
-58 -198 0
-58 -211 0
-58 -223 0
-58 -235 0
-58 -236 0
-58 -237 0
-58 -238 0
-58 -239 0
-58 -240 0
-58 -241 0
-58 -242 0
-58 -243 0
-58 -244 0
-58 -245 0
-58 -314 0
-79 -99 0
-79 -118 0
-79 -136 0
-79 -153 0
-79 -169 0
-79 -184 0
-79 -198 0
-79 -211 0
-79 -223 0
-79 -235 0
-79 -236 0
-79 -237 0
-79 -238 0
-79 -239 0
-79 -240 0
-79 -241 0
-79 -242 0
-79 -243 0
-79 -244 0
-79 -245 0
-79 -314 0
-99 -118 0
-99 -136 0
-99 -153 0
-99 -169 0
-99 -184 0
-99 -198 0
-99 -211 0
-99 -223 0
-99 -235 0
-99 -236 0
-99 -237 0
-99 -238 0
-99 -239 0
-99 -240 0
-99 -241 0
-99 -242 0
-99 -243 0
-99 -244 0
-99 -245 0
-99 -314 0
-118 -136 0
-118 -153 0
-118 -169 0
-118 -184 0
-118 -198 0
-118 -211 0
-118 -223 0
-118 -235 0
-118 -236 0
-118 -237 0
-118 -238 0
-118 -239 0
-118 -240 0
-118 -241 0
-118 -242 0
-118 -243 0
-118 -244 0
-118 -245 0
-118 -314 0
-136 -153 0
-136 -169 0
-136 -184 0
-136 -198 0
-136 -211 0
-136 -223 0
-136 -235 0
-136 -236 0
-136 -237 0
-136 -238 0
-136 -239 0
-136 -240 0
-136 -241 0
-136 -242 0
-136 -243 0
-136 -244 0
-136 -245 0
-136 -314 0
-153 -169 0
-153 -184 0
-153 -198 0
-153 -211 0
-153 -223 0
-153 -235 0
-153 -236 0
-153 -237 0
-153 -238 0
-153 -239 0
-153 -240 0
-153 -241 0
-153 -242 0
-153 -243 0
-153 -244 0
-153 -245 0
-153 -314 0
-169 -184 0
-169 -198 0
-169 -211 0
-169 -223 0
-169 -235 0
-169 -236 0
-169 -237 0
-169 -238 0
-169 -239 0
-169 -240 0
-169 -241 0
-169 -242 0
-169 -243 0
-169 -244 0
-169 -245 0
-169 -314 0
-184 -198 0
-184 -211 0
-184 -223 0
-184 -235 0
-184 -236 0
-184 -237 0
-184 -238 0
-184 -239 0
-184 -240 0
-184 -241 0
-184 -242 0
-184 -243 0
-184 -244 0
-184 -245 0
-184 -314 0
-198 -211 0
-198 -223 0
-198 -235 0
-198 -236 0
-198 -237 0
-198 -238 0
-198 -239 0
-198 -240 0
-198 -241 0
-198 -242 0
-198 -243 0
-198 -244 0
-198 -245 0
-198 -314 0
-211 -223 0
-211 -235 0
-211 -236 0
-211 -237 0
-211 -238 0
-211 -239 0
-211 -240 0
-211 -241 0
-211 -242 0
-211 -243 0
-211 -244 0
-211 -245 0
-211 -314 0
-223 -235 0
-223 -236 0
-223 -237 0
-223 -238 0
-223 -239 0
-223 -240 0
-223 -241 0
-223 -242 0
-223 -243 0
-223 -244 0
-223 -245 0
-223 -314 0
-235 -236 0
-235 -237 0
-235 -238 0
-235 -239 0
-235 -240 0
-235 -241 0
-235 -242 0
-235 -243 0
-235 -244 0
-235 -245 0
-235 -314 0
-236 -237 0
-236 -238 0
-236 -239 0
-236 -240 0
-236 -241 0
-236 -242 0
-236 -243 0
-236 -244 0
-236 -245 0
-236 -314 0
-237 -238 0
-237 -239 0
-237 -240 0
-237 -241 0
-237 -242 0
-237 -243 0
-237 -244 0
-237 -245 0
-237 -314 0
-238 -239 0
-238 -240 0
-238 -241 0
-238 -242 0
-238 -243 0
-238 -244 0
-238 -245 0
-238 -314 0
-239 -240 0
-239 -241 0
-239 -242 0
-239 -243 0
-239 -244 0
-239 -245 0
-239 -314 0
-240 -241 0
-240 -242 0
-240 -243 0
-240 -244 0
-240 -245 0
-240 -314 0
-241 -242 0
-241 -243 0
-241 -244 0
-241 -245 0
-241 -314 0
-242 -243 0
-242 -244 0
-242 -245 0
-242 -314 0
-243 -244 0
-243 -245 0
-243 -314 0
-244 -245 0
-244 -314 0
-245 -314 0
14 37 59 80 100 119 137 154 170 185 199 212 224 235 246 247 248 249 250 251 252 253 254 255 315 0
-14 -37 0
-14 -59 0
-14 -80 0
-14 -100 0
-14 -119 0
-14 -137 0
-14 -154 0
-14 -170 0
-14 -185 0
-14 -199 0
-14 -212 0
-14 -224 0
-14 -235 0
-14 -246 0
-14 -247 0
-14 -248 0
-14 -249 0
-14 -250 0
-14 -251 0
-14 -252 0
-14 -253 0
-14 -254 0
-14 -255 0
-14 -315 0
-37 -59 0
-37 -80 0
-37 -100 0
-37 -119 0
-37 -137 0
-37 -154 0
-37 -170 0
-37 -185 0
-37 -199 0
-37 -212 0
-37 -224 0
-37 -235 0
-37 -246 0
-37 -247 0
-37 -248 0
-37 -249 0
-37 -250 0
-37 -251 0
-37 -252 0
-37 -253 0
-37 -254 0
-37 -255 0
-37 -315 0
-59 -80 0
-59 -100 0
-59 -119 0
-59 -137 0
-59 -154 0
-59 -170 0
-59 -185 0
-59 -199 0
-59 -212 0
-59 -224 0
-59 -235 0
-59 -246 0
-59 -247 0
-59 -248 0
-59 -249 0
-59 -250 0
-59 -251 0
-59 -252 0
-59 -253 0
-59 -254 0
-59 -255 0
-59 -315 0
-80 -100 0
-80 -119 0
-80 -137 0
-80 -154 0
-80 -170 0
-80 -185 0
-80 -199 0
-80 -212 0
-80 -224 0
-80 -235 0
-80 -246 0
-80 -247 0
-80 -248 0
-80 -249 0
-80 -250 0
-80 -251 0
-80 -252 0
-80 -253 0
-80 -254 0
-80 -255 0
-80 -315 0
-100 -119 0
-100 -137 0
-100 -154 0
-100 -170 0
-100 -185 0
-100 -199 0
-100 -212 0
-100 -224 0
-100 -235 0
-100 -246 0
-100 -247 0
-100 -248 0
-100 -249 0
-100 -250 0
-100 -251 0
-100 -252 0
-100 -253 0
-100 -254 0
-100 -255 0
-100 -315 0
-119 -137 0
-119 -154 0
-119 -170 0
-119 -185 0
-119 -199 0
-119 -212 0
-119 -224 0
-119 -235 0
-119 -246 0
-119 -247 0
-119 -248 0
-119 -249 0
-119 -250 0
-119 -251 0
-119 -252 0
-119 -253 0
-119 -254 0
-119 -255 0
-119 -315 0
-137 -154 0
-137 -170 0
-137 -185 0
-137 -199 0
-137 -212 0
-137 -224 0
-137 -235 0
-137 -246 0
-137 -247 0
-137 -248 0
-137 -249 0
-137 -250 0
-137 -251 0
-137 -252 0
-137 -253 0
-137 -254 0
-137 -255 0
-137 -315 0
-154 -170 0
-154 -185 0
-154 -199 0
-154 -212 0
-154 -224 0
-154 -235 0
-154 -246 0
-154 -247 0
-154 -248 0
-154 -249 0
-154 -250 0
-154 -251 0
-154 -252 0
-154 -253 0
-154 -254 0
-154 -255 0
-154 -315 0
-170 -185 0
-170 -199 0
-170 -212 0
-170 -224 0
-170 -235 0
-170 -246 0
-170 -247 0
-170 -248 0
-170 -249 0
-170 -250 0
-170 -251 0
-170 -252 0
-170 -253 0
-170 -254 0
-170 -255 0
-170 -315 0
-185 -199 0
-185 -212 0
-185 -224 0
-185 -235 0
-185 -246 0
-185 -247 0
-185 -248 0
-185 -249 0
-185 -250 0
-185 -251 0
-185 -252 0
-185 -253 0
-185 -254 0
-185 -255 0
-185 -315 0
-199 -212 0
-199 -224 0
-199 -235 0
-199 -246 0
-199 -247 0
-199 -248 0
-199 -249 0
-199 -250 0
-199 -251 0
-199 -252 0
-199 -253 0
-199 -254 0
-199 -255 0
-199 -315 0
-212 -224 0
-212 -235 0
-212 -246 0
-212 -247 0
-212 -248 0
-212 -249 0
-212 -250 0
-212 -251 0
-212 -252 0
-212 -253 0
-212 -254 0
-212 -255 0
-212 -315 0
-224 -235 0
-224 -246 0
-224 -247 0
-224 -248 0
-224 -249 0
-224 -250 0
-224 -251 0
-224 -252 0
-224 -253 0
-224 -254 0
-224 -255 0
-224 -315 0
-235 -246 0
-235 -247 0
-235 -248 0
-235 -249 0
-235 -250 0
-235 -251 0
-235 -252 0
-235 -253 0
-235 -254 0
-235 -255 0
-235 -315 0
-246 -247 0
-246 -248 0
-246 -249 0
-246 -250 0
-246 -251 0
-246 -252 0
-246 -253 0
-246 -254 0
-246 -255 0
-246 -315 0
-247 -248 0
-247 -249 0
-247 -250 0
-247 -251 0
-247 -252 0
-247 -253 0
-247 -254 0
-247 -255 0
-247 -315 0
-248 -249 0
-248 -250 0
-248 -251 0
-248 -252 0
-248 -253 0
-248 -254 0
-248 -255 0
-248 -315 0
-249 -250 0
-249 -251 0
-249 -252 0
-249 -253 0
-249 -254 0
-249 -255 0
-249 -315 0
-250 -251 0
-250 -252 0
-250 -253 0
-250 -254 0
-250 -255 0
-250 -315 0
-251 -252 0
-251 -253 0
-251 -254 0
-251 -255 0
-251 -315 0
-252 -253 0
-252 -254 0
-252 -255 0
-252 -315 0
-253 -254 0
-253 -255 0
-253 -315 0
-254 -255 0
-254 -315 0
-255 -315 0
15 38 60 81 101 120 138 155 171 186 200 213 225 236 246 256 257 258 259 260 261 262 263 264 316 0
-15 -38 0
-15 -60 0
-15 -81 0
-15 -101 0
-15 -120 0
-15 -138 0
-15 -155 0
-15 -171 0
-15 -186 0
-15 -200 0
-15 -213 0
-15 -225 0
-15 -236 0
-15 -246 0
-15 -256 0
-15 -257 0
-15 -258 0
-15 -259 0
-15 -260 0
-15 -261 0
-15 -262 0
-15 -263 0
-15 -264 0
-15 -316 0
-38 -60 0
-38 -81 0
-38 -101 0
-38 -120 0
-38 -138 0
-38 -155 0
-38 -171 0
-38 -186 0
-38 -200 0
-38 -213 0
-38 -225 0
-38 -236 0
-38 -246 0
-38 -256 0
-38 -257 0
-38 -258 0
-38 -259 0
-38 -260 0
-38 -261 0
-38 -262 0
-38 -263 0
-38 -264 0
-38 -316 0
-60 -81 0
-60 -101 0
-60 -120 0
-60 -138 0
-60 -155 0
-60 -171 0
-60 -186 0
-60 -200 0
-60 -213 0
-60 -225 0
-60 -236 0
-60 -246 0
-60 -256 0
-60 -257 0
-60 -258 0
-60 -259 0
-60 -260 0
-60 -261 0
-60 -262 0
-60 -263 0
-60 -264 0
-60 -316 0
-81 -101 0
-81 -120 0
-81 -138 0
-81 -155 0
-81 -171 0
-81 -186 0
-81 -200 0
-81 -213 0
-81 -225 0
-81 -236 0
-81 -246 0
-81 -256 0
-81 -257 0
-81 -258 0
-81 -259 0
-81 -260 0
-81 -261 0
-81 -262 0
-81 -263 0
-81 -264 0
-81 -316 0
-101 -120 0
-101 -138 0
-101 -155 0
-101 -171 0
-101 -186 0
-101 -200 0
-101 -213 0
-101 -225 0
-101 -236 0
-101 -246 0
-101 -256 0
-101 -257 0
-101 -258 0
-101 -259 0
-101 -260 0
-101 -261 0
-101 -262 0
-101 -263 0
-101 -264 0
-101 -316 0
-120 -138 0
-120 -155 0
-120 -171 0
-120 -186 0
-120 -200 0
-120 -213 0
-120 -225 0
-120 -236 0
-120 -246 0
-120 -256 0
-120 -257 0
-120 -258 0
-120 -259 0
-120 -260 0
-120 -261 0
-120 -262 0
-120 -263 0
-120 -264 0
-120 -316 0
-138 -155 0
-138 -171 0
-138 -186 0
-138 -200 0
-138 -213 0
-138 -225 0
-138 -236 0
-138 -246 0
-138 -256 0
-138 -257 0
-138 -258 0
-138 -259 0
-138 -260 0
-138 -261 0
-138 -262 0
-138 -263 0
-138 -264 0
-138 -316 0
-155 -171 0
-155 -186 0
-155 -200 0
-155 -213 0
-155 -225 0
-155 -236 0
-155 -246 0
-155 -256 0
-155 -257 0
-155 -258 0
-155 -259 0
-155 -260 0
-155 -261 0
-155 -262 0
-155 -263 0
-155 -264 0
-155 -316 0
-171 -186 0
-171 -200 0
-171 -213 0
-171 -225 0
-171 -236 0
-171 -246 0
-171 -256 0
-171 -257 0
-171 -258 0
-171 -259 0
-171 -260 0
-171 -261 0
-171 -262 0
-171 -263 0
-171 -264 0
-171 -316 0
-186 -200 0
-186 -213 0
-186 -225 0
-186 -236 0
-186 -246 0
-186 -256 0
-186 -257 0
-186 -258 0
-186 -259 0
-186 -260 0
-186 -261 0
-186 -262 0
-186 -263 0
-186 -264 0
-186 -316 0
-200 -213 0
-200 -225 0
-200 -236 0
-200 -246 0
-200 -256 0
-200 -257 0
-200 -258 0
-200 -259 0
-200 -260 0
-200 -261 0
-200 -262 0
-200 -263 0
-200 -264 0
-200 -316 0
-213 -225 0
-213 -236 0
-213 -246 0
-213 -256 0
-213 -257 0
-213 -258 0
-213 -259 0
-213 -260 0
-213 -261 0
-213 -262 0
-213 -263 0
-213 -264 0
-213 -316 0
-225 -236 0
-225 -246 0
-225 -256 0
-225 -257 0
-225 -258 0
-225 -259 0
-225 -260 0
-225 -261 0
-225 -262 0
-225 -263 0
-225 -264 0
-225 -316 0
-236 -246 0
-236 -256 0
-236 -257 0
-236 -258 0
-236 -259 0
-236 -260 0
-236 -261 0
-236 -262 0
-236 -263 0
-236 -264 0
-236 -316 0
-246 -256 0
-246 -257 0
-246 -258 0
-246 -259 0
-246 -260 0
-246 -261 0
-246 -262 0
-246 -263 0
-246 -264 0
-246 -316 0
-256 -257 0
-256 -258 0
-256 -259 0
-256 -260 0
-256 -261 0
-256 -262 0
-256 -263 0
-256 -264 0
-256 -316 0
-257 -258 0
-257 -259 0
-257 -260 0
-257 -261 0
-257 -262 0
-257 -263 0
-257 -264 0
-257 -316 0
-258 -259 0
-258 -260 0
-258 -261 0
-258 -262 0
-258 -263 0
-258 -264 0
-258 -316 0
-259 -260 0
-259 -261 0
-259 -262 0
-259 -263 0
-259 -264 0
-259 -316 0
-260 -261 0
-260 -262 0
-260 -263 0
-260 -264 0
-260 -316 0
-261 -262 0
-261 -263 0
-261 -264 0
-261 -316 0
-262 -263 0
-262 -264 0
-262 -316 0
-263 -264 0
-263 -316 0
-264 -316 0
16 39 61 82 102 121 139 156 172 187 201 214 226 237 247 256 265 266 267 268 269 270 271 272 317 0
-16 -39 0
-16 -61 0
-16 -82 0
-16 -102 0
-16 -121 0
-16 -139 0
-16 -156 0
-16 -172 0
-16 -187 0
-16 -201 0
-16 -214 0
-16 -226 0
-16 -237 0
-16 -247 0
-16 -256 0
-16 -265 0
-16 -266 0
-16 -267 0
-16 -268 0
-16 -269 0
-16 -270 0
-16 -271 0
-16 -272 0
-16 -317 0
-39 -61 0
-39 -82 0
-39 -102 0
-39 -121 0
-39 -139 0
-39 -156 0
-39 -172 0
-39 -187 0
-39 -201 0
-39 -214 0
-39 -226 0
-39 -237 0
-39 -247 0
-39 -256 0
-39 -265 0
-39 -266 0
-39 -267 0
-39 -268 0
-39 -269 0
-39 -270 0
-39 -271 0
-39 -272 0
-39 -317 0
-61 -82 0
-61 -102 0
-61 -121 0
-61 -139 0
-61 -156 0
-61 -172 0
-61 -187 0
-61 -201 0
-61 -214 0
-61 -226 0
-61 -237 0
-61 -247 0
-61 -256 0
-61 -265 0
-61 -266 0
-61 -267 0
-61 -268 0
-61 -269 0
-61 -270 0
-61 -271 0
-61 -272 0
-61 -317 0
-82 -102 0
-82 -121 0
-82 -139 0
-82 -156 0
-82 -172 0
-82 -187 0
-82 -201 0
-82 -214 0
-82 -226 0
-82 -237 0
-82 -247 0
-82 -256 0
-82 -265 0
-82 -266 0
-82 -267 0
-82 -268 0
-82 -269 0
-82 -270 0
-82 -271 0
-82 -272 0
-82 -317 0
-102 -121 0
-102 -139 0
-102 -156 0
-102 -172 0
-102 -187 0
-102 -201 0
-102 -214 0
-102 -226 0
-102 -237 0
-102 -247 0
-102 -256 0
-102 -265 0
-102 -266 0
-102 -267 0
-102 -268 0
-102 -269 0
-102 -270 0
-102 -271 0
-102 -272 0
-102 -317 0
-121 -139 0
-121 -156 0
-121 -172 0
-121 -187 0
-121 -201 0
-121 -214 0
-121 -226 0
-121 -237 0
-121 -247 0
-121 -256 0
-121 -265 0
-121 -266 0
-121 -267 0
-121 -268 0
-121 -269 0
-121 -270 0
-121 -271 0
-121 -272 0
-121 -317 0
-139 -156 0
-139 -172 0
-139 -187 0
-139 -201 0
-139 -214 0
-139 -226 0
-139 -237 0
-139 -247 0
-139 -256 0
-139 -265 0
-139 -266 0
-139 -267 0
-139 -268 0
-139 -269 0
-139 -270 0
-139 -271 0
-139 -272 0
-139 -317 0
-156 -172 0
-156 -187 0
-156 -201 0
-156 -214 0
-156 -226 0
-156 -237 0
-156 -247 0
-156 -256 0
-156 -265 0
-156 -266 0
-156 -267 0
-156 -268 0
-156 -269 0
-156 -270 0
-156 -271 0
-156 -272 0
-156 -317 0
-172 -187 0
-172 -201 0
-172 -214 0
-172 -226 0
-172 -237 0
-172 -247 0
-172 -256 0
-172 -265 0
-172 -266 0
-172 -267 0
-172 -268 0
-172 -269 0
-172 -270 0
-172 -271 0
-172 -272 0
-172 -317 0
-187 -201 0
-187 -214 0
-187 -226 0
-187 -237 0
-187 -247 0
-187 -256 0
-187 -265 0
-187 -266 0
-187 -267 0
-187 -268 0
-187 -269 0
-187 -270 0
-187 -271 0
-187 -272 0
-187 -317 0
-201 -214 0
-201 -226 0
-201 -237 0
-201 -247 0
-201 -256 0
-201 -265 0
-201 -266 0
-201 -267 0
-201 -268 0
-201 -269 0
-201 -270 0
-201 -271 0
-201 -272 0
-201 -317 0
-214 -226 0
-214 -237 0
-214 -247 0
-214 -256 0
-214 -265 0
-214 -266 0
-214 -267 0
-214 -268 0
-214 -269 0
-214 -270 0
-214 -271 0
-214 -272 0
-214 -317 0
-226 -237 0
-226 -247 0
-226 -256 0
-226 -265 0
-226 -266 0
-226 -267 0
-226 -268 0
-226 -269 0
-226 -270 0
-226 -271 0
-226 -272 0
-226 -317 0
-237 -247 0
-237 -256 0
-237 -265 0
-237 -266 0
-237 -267 0
-237 -268 0
-237 -269 0
-237 -270 0
-237 -271 0
-237 -272 0
-237 -317 0
-247 -256 0
-247 -265 0
-247 -266 0
-247 -267 0
-247 -268 0
-247 -269 0
-247 -270 0
-247 -271 0
-247 -272 0
-247 -317 0
-256 -265 0
-256 -266 0
-256 -267 0
-256 -268 0
-256 -269 0
-256 -270 0
-256 -271 0
-256 -272 0
-256 -317 0
-265 -266 0
-265 -267 0
-265 -268 0
-265 -269 0
-265 -270 0
-265 -271 0
-265 -272 0
-265 -317 0
-266 -267 0
-266 -268 0
-266 -269 0
-266 -270 0
-266 -271 0
-266 -272 0
-266 -317 0
-267 -268 0
-267 -269 0
-267 -270 0
-267 -271 0
-267 -272 0
-267 -317 0
-268 -269 0
-268 -270 0
-268 -271 0
-268 -272 0
-268 -317 0
-269 -270 0
-269 -271 0
-269 -272 0
-269 -317 0
-270 -271 0
-270 -272 0
-270 -317 0
-271 -272 0
-271 -317 0
-272 -317 0
17 40 62 83 103 122 140 157 173 188 202 215 227 238 248 257 265 273 274 275 276 277 278 279 318 0
-17 -40 0
-17 -62 0
-17 -83 0
-17 -103 0
-17 -122 0
-17 -140 0
-17 -157 0
-17 -173 0
-17 -188 0
-17 -202 0
-17 -215 0
-17 -227 0
-17 -238 0
-17 -248 0
-17 -257 0
-17 -265 0
-17 -273 0
-17 -274 0
-17 -275 0
-17 -276 0
-17 -277 0
-17 -278 0
-17 -279 0
-17 -318 0
-40 -62 0
-40 -83 0
-40 -103 0
-40 -122 0
-40 -140 0
-40 -157 0
-40 -173 0
-40 -188 0
-40 -202 0
-40 -215 0
-40 -227 0
-40 -238 0
-40 -248 0
-40 -257 0
-40 -265 0
-40 -273 0
-40 -274 0
-40 -275 0
-40 -276 0
-40 -277 0
-40 -278 0
-40 -279 0
-40 -318 0
-62 -83 0
-62 -103 0
-62 -122 0
-62 -140 0
-62 -157 0
-62 -173 0
-62 -188 0
-62 -202 0
-62 -215 0
-62 -227 0
-62 -238 0
-62 -248 0
-62 -257 0
-62 -265 0
-62 -273 0
-62 -274 0
-62 -275 0
-62 -276 0
-62 -277 0
-62 -278 0
-62 -279 0
-62 -318 0
-83 -103 0
-83 -122 0
-83 -140 0
-83 -157 0
-83 -173 0
-83 -188 0
-83 -202 0
-83 -215 0
-83 -227 0
-83 -238 0
-83 -248 0
-83 -257 0
-83 -265 0
-83 -273 0
-83 -274 0
-83 -275 0
-83 -276 0
-83 -277 0
-83 -278 0
-83 -279 0
-83 -318 0
-103 -122 0
-103 -140 0
-103 -157 0
-103 -173 0
-103 -188 0
-103 -202 0
-103 -215 0
-103 -227 0
-103 -238 0
-103 -248 0
-103 -257 0
-103 -265 0
-103 -273 0
-103 -274 0
-103 -275 0
-103 -276 0
-103 -277 0
-103 -278 0
-103 -279 0
-103 -318 0
-122 -140 0
-122 -157 0
-122 -173 0
-122 -188 0
-122 -202 0
-122 -215 0
-122 -227 0
-122 -238 0
-122 -248 0
-122 -257 0
-122 -265 0
-122 -273 0
-122 -274 0
-122 -275 0
-122 -276 0
-122 -277 0
-122 -278 0
-122 -279 0
-122 -318 0
-140 -157 0
-140 -173 0
-140 -188 0
-140 -202 0
-140 -215 0
-140 -227 0
-140 -238 0
-140 -248 0
-140 -257 0
-140 -265 0
-140 -273 0
-140 -274 0
-140 -275 0
-140 -276 0
-140 -277 0
-140 -278 0
-140 -279 0
-140 -318 0
-157 -173 0
-157 -188 0
-157 -202 0
-157 -215 0
-157 -227 0
-157 -238 0
-157 -248 0
-157 -257 0
-157 -265 0
-157 -273 0
-157 -274 0
-157 -275 0
-157 -276 0
-157 -277 0
-157 -278 0
-157 -279 0
-157 -318 0
-173 -188 0
-173 -202 0
-173 -215 0
-173 -227 0
-173 -238 0
-173 -248 0
-173 -257 0
-173 -265 0
-173 -273 0
-173 -274 0
-173 -275 0
-173 -276 0
-173 -277 0
-173 -278 0
-173 -279 0
-173 -318 0
-188 -202 0
-188 -215 0
-188 -227 0
-188 -238 0
-188 -248 0
-188 -257 0
-188 -265 0
-188 -273 0
-188 -274 0
-188 -275 0
-188 -276 0
-188 -277 0
-188 -278 0
-188 -279 0
-188 -318 0
-202 -215 0
-202 -227 0
-202 -238 0
-202 -248 0
-202 -257 0
-202 -265 0
-202 -273 0
-202 -274 0
-202 -275 0
-202 -276 0
-202 -277 0
-202 -278 0
-202 -279 0
-202 -318 0
-215 -227 0
-215 -238 0
-215 -248 0
-215 -257 0
-215 -265 0
-215 -273 0
-215 -274 0
-215 -275 0
-215 -276 0
-215 -277 0
-215 -278 0
-215 -279 0
-215 -318 0
-227 -238 0
-227 -248 0
-227 -257 0
-227 -265 0
-227 -273 0
-227 -274 0
-227 -275 0
-227 -276 0
-227 -277 0
-227 -278 0
-227 -279 0
-227 -318 0
-238 -248 0
-238 -257 0
-238 -265 0
-238 -273 0
-238 -274 0
-238 -275 0
-238 -276 0
-238 -277 0
-238 -278 0
-238 -279 0
-238 -318 0
-248 -257 0
-248 -265 0
-248 -273 0
-248 -274 0
-248 -275 0
-248 -276 0
-248 -277 0
-248 -278 0
-248 -279 0
-248 -318 0
-257 -265 0
-257 -273 0
-257 -274 0
-257 -275 0
-257 -276 0
-257 -277 0
-257 -278 0
-257 -279 0
-257 -318 0
-265 -273 0
-265 -274 0
-265 -275 0
-265 -276 0
-265 -277 0
-265 -278 0
-265 -279 0
-265 -318 0
-273 -274 0
-273 -275 0
-273 -276 0
-273 -277 0
-273 -278 0
-273 -279 0
-273 -318 0
-274 -275 0
-274 -276 0
-274 -277 0
-274 -278 0
-274 -279 0
-274 -318 0
-275 -276 0
-275 -277 0
-275 -278 0
-275 -279 0
-275 -318 0
-276 -277 0
-276 -278 0
-276 -279 0
-276 -318 0
-277 -278 0
-277 -279 0
-277 -318 0
-278 -279 0
-278 -318 0
-279 -318 0
18 41 63 84 104 123 141 158 174 189 203 216 228 239 249 258 266 273 280 281 282 283 284 285 319 0
-18 -41 0
-18 -63 0
-18 -84 0
-18 -104 0
-18 -123 0
-18 -141 0
-18 -158 0
-18 -174 0
-18 -189 0
-18 -203 0
-18 -216 0
-18 -228 0
-18 -239 0
-18 -249 0
-18 -258 0
-18 -266 0
-18 -273 0
-18 -280 0
-18 -281 0
-18 -282 0
-18 -283 0
-18 -284 0
-18 -285 0
-18 -319 0
-41 -63 0
-41 -84 0
-41 -104 0
-41 -123 0
-41 -141 0
-41 -158 0
-41 -174 0
-41 -189 0
-41 -203 0
-41 -216 0
-41 -228 0
-41 -239 0
-41 -249 0
-41 -258 0
-41 -266 0
-41 -273 0
-41 -280 0
-41 -281 0
-41 -282 0
-41 -283 0
-41 -284 0
-41 -285 0
-41 -319 0
-63 -84 0
-63 -104 0
-63 -123 0
-63 -141 0
-63 -158 0
-63 -174 0
-63 -189 0
-63 -203 0
-63 -216 0
-63 -228 0
-63 -239 0
-63 -249 0
-63 -258 0
-63 -266 0
-63 -273 0
-63 -280 0
-63 -281 0
-63 -282 0
-63 -283 0
-63 -284 0
-63 -285 0
-63 -319 0
-84 -104 0
-84 -123 0
-84 -141 0
-84 -158 0
-84 -174 0
-84 -189 0
-84 -203 0
-84 -216 0
-84 -228 0
-84 -239 0
-84 -249 0
-84 -258 0
-84 -266 0
-84 -273 0
-84 -280 0
-84 -281 0
-84 -282 0
-84 -283 0
-84 -284 0
-84 -285 0
-84 -319 0
-104 -123 0
-104 -141 0
-104 -158 0
-104 -174 0
-104 -189 0
-104 -203 0
-104 -216 0
-104 -228 0
-104 -239 0
-104 -249 0
-104 -258 0
-104 -266 0
-104 -273 0
-104 -280 0
-104 -281 0
-104 -282 0
-104 -283 0
-104 -284 0
-104 -285 0
-104 -319 0
-123 -141 0
-123 -158 0
-123 -174 0
-123 -189 0
-123 -203 0
-123 -216 0
-123 -228 0
-123 -239 0
-123 -249 0
-123 -258 0
-123 -266 0
-123 -273 0
-123 -280 0
-123 -281 0
-123 -282 0
-123 -283 0
-123 -284 0
-123 -285 0
-123 -319 0
-141 -158 0
-141 -174 0
-141 -189 0
-141 -203 0
-141 -216 0
-141 -228 0
-141 -239 0
-141 -249 0
-141 -258 0
-141 -266 0
-141 -273 0
-141 -280 0
-141 -281 0
-141 -282 0
-141 -283 0
-141 -284 0
-141 -285 0
-141 -319 0
-158 -174 0
-158 -189 0
-158 -203 0
-158 -216 0
-158 -228 0
-158 -239 0
-158 -249 0
-158 -258 0
-158 -266 0
-158 -273 0
-158 -280 0
-158 -281 0
-158 -282 0
-158 -283 0
-158 -284 0
-158 -285 0
-158 -319 0
-174 -189 0
-174 -203 0
-174 -216 0
-174 -228 0
-174 -239 0
-174 -249 0
-174 -258 0
-174 -266 0
-174 -273 0
-174 -280 0
-174 -281 0
-174 -282 0
-174 -283 0
-174 -284 0
-174 -285 0
-174 -319 0
-189 -203 0
-189 -216 0
-189 -228 0
-189 -239 0
-189 -249 0
-189 -258 0
-189 -266 0
-189 -273 0
-189 -280 0
-189 -281 0
-189 -282 0
-189 -283 0
-189 -284 0
-189 -285 0
-189 -319 0
-203 -216 0
-203 -228 0
-203 -239 0
-203 -249 0
-203 -258 0
-203 -266 0
-203 -273 0
-203 -280 0
-203 -281 0
-203 -282 0
-203 -283 0
-203 -284 0
-203 -285 0
-203 -319 0
-216 -228 0
-216 -239 0
-216 -249 0
-216 -258 0
-216 -266 0
-216 -273 0
-216 -280 0
-216 -281 0
-216 -282 0
-216 -283 0
-216 -284 0
-216 -285 0
-216 -319 0
-228 -239 0
-228 -249 0
-228 -258 0
-228 -266 0
-228 -273 0
-228 -280 0
-228 -281 0
-228 -282 0
-228 -283 0
-228 -284 0
-228 -285 0
-228 -319 0
-239 -249 0
-239 -258 0
-239 -266 0
-239 -273 0
-239 -280 0
-239 -281 0
-239 -282 0
-239 -283 0
-239 -284 0
-239 -285 0
-239 -319 0
-249 -258 0
-249 -266 0
-249 -273 0
-249 -280 0
-249 -281 0
-249 -282 0
-249 -283 0
-249 -284 0
-249 -285 0
-249 -319 0
-258 -266 0
-258 -273 0
-258 -280 0
-258 -281 0
-258 -282 0
-258 -283 0
-258 -284 0
-258 -285 0
-258 -319 0
-266 -273 0
-266 -280 0
-266 -281 0
-266 -282 0
-266 -283 0
-266 -284 0
-266 -285 0
-266 -319 0
-273 -280 0
-273 -281 0
-273 -282 0
-273 -283 0
-273 -284 0
-273 -285 0
-273 -319 0
-280 -281 0
-280 -282 0
-280 -283 0
-280 -284 0
-280 -285 0
-280 -319 0
-281 -282 0
-281 -283 0
-281 -284 0
-281 -285 0
-281 -319 0
-282 -283 0
-282 -284 0
-282 -285 0
-282 -319 0
-283 -284 0
-283 -285 0
-283 -319 0
-284 -285 0
-284 -319 0
-285 -319 0
19 42 64 85 105 124 142 159 175 190 204 217 229 240 250 259 267 274 280 286 287 288 289 290 320 0
-19 -42 0
-19 -64 0
-19 -85 0
-19 -105 0
-19 -124 0
-19 -142 0
-19 -159 0
-19 -175 0
-19 -190 0
-19 -204 0
-19 -217 0
-19 -229 0
-19 -240 0
-19 -250 0
-19 -259 0
-19 -267 0
-19 -274 0
-19 -280 0
-19 -286 0
-19 -287 0
-19 -288 0
-19 -289 0
-19 -290 0
-19 -320 0
-42 -64 0
-42 -85 0
-42 -105 0
-42 -124 0
-42 -142 0
-42 -159 0
-42 -175 0
-42 -190 0
-42 -204 0
-42 -217 0
-42 -229 0
-42 -240 0
-42 -250 0
-42 -259 0
-42 -267 0
-42 -274 0
-42 -280 0
-42 -286 0
-42 -287 0
-42 -288 0
-42 -289 0
-42 -290 0
-42 -320 0
-64 -85 0
-64 -105 0
-64 -124 0
-64 -142 0
-64 -159 0
-64 -175 0
-64 -190 0
-64 -204 0
-64 -217 0
-64 -229 0
-64 -240 0
-64 -250 0
-64 -259 0
-64 -267 0
-64 -274 0
-64 -280 0
-64 -286 0
-64 -287 0
-64 -288 0
-64 -289 0
-64 -290 0
-64 -320 0
-85 -105 0
-85 -124 0
-85 -142 0
-85 -159 0
-85 -175 0
-85 -190 0
-85 -204 0
-85 -217 0
-85 -229 0
-85 -240 0
-85 -250 0
-85 -259 0
-85 -267 0
-85 -274 0
-85 -280 0
-85 -286 0
-85 -287 0
-85 -288 0
-85 -289 0
-85 -290 0
-85 -320 0
-105 -124 0
-105 -142 0
-105 -159 0
-105 -175 0
-105 -190 0
-105 -204 0
-105 -217 0
-105 -229 0
-105 -240 0
-105 -250 0
-105 -259 0
-105 -267 0
-105 -274 0
-105 -280 0
-105 -286 0
-105 -287 0
-105 -288 0
-105 -289 0
-105 -290 0
-105 -320 0
-124 -142 0
-124 -159 0
-124 -175 0
-124 -190 0
-124 -204 0
-124 -217 0
-124 -229 0
-124 -240 0
-124 -250 0
-124 -259 0
-124 -267 0
-124 -274 0
-124 -280 0
-124 -286 0
-124 -287 0
-124 -288 0
-124 -289 0
-124 -290 0
-124 -320 0
-142 -159 0
-142 -175 0
-142 -190 0
-142 -204 0
-142 -217 0
-142 -229 0
-142 -240 0
-142 -250 0
-142 -259 0
-142 -267 0
-142 -274 0
-142 -280 0
-142 -286 0
-142 -287 0
-142 -288 0
-142 -289 0
-142 -290 0
-142 -320 0
-159 -175 0
-159 -190 0
-159 -204 0
-159 -217 0
-159 -229 0
-159 -240 0
-159 -250 0
-159 -259 0
-159 -267 0
-159 -274 0
-159 -280 0
-159 -286 0
-159 -287 0
-159 -288 0
-159 -289 0
-159 -290 0
-159 -320 0
-175 -190 0
-175 -204 0
-175 -217 0
-175 -229 0
-175 -240 0
-175 -250 0
-175 -259 0
-175 -267 0
-175 -274 0
-175 -280 0
-175 -286 0
-175 -287 0
-175 -288 0
-175 -289 0
-175 -290 0
-175 -320 0
-190 -204 0
-190 -217 0
-190 -229 0
-190 -240 0
-190 -250 0
-190 -259 0
-190 -267 0
-190 -274 0
-190 -280 0
-190 -286 0
-190 -287 0
-190 -288 0
-190 -289 0
-190 -290 0
-190 -320 0
-204 -217 0
-204 -229 0
-204 -240 0
-204 -250 0
-204 -259 0
-204 -267 0
-204 -274 0
-204 -280 0
-204 -286 0
-204 -287 0
-204 -288 0
-204 -289 0
-204 -290 0
-204 -320 0
-217 -229 0
-217 -240 0
-217 -250 0
-217 -259 0
-217 -267 0
-217 -274 0
-217 -280 0
-217 -286 0
-217 -287 0
-217 -288 0
-217 -289 0
-217 -290 0
-217 -320 0
-229 -240 0
-229 -250 0
-229 -259 0
-229 -267 0
-229 -274 0
-229 -280 0
-229 -286 0
-229 -287 0
-229 -288 0
-229 -289 0
-229 -290 0
-229 -320 0
-240 -250 0
-240 -259 0
-240 -267 0
-240 -274 0
-240 -280 0
-240 -286 0
-240 -287 0
-240 -288 0
-240 -289 0
-240 -290 0
-240 -320 0
-250 -259 0
-250 -267 0
-250 -274 0
-250 -280 0
-250 -286 0
-250 -287 0
-250 -288 0
-250 -289 0
-250 -290 0
-250 -320 0
-259 -267 0
-259 -274 0
-259 -280 0
-259 -286 0
-259 -287 0
-259 -288 0
-259 -289 0
-259 -290 0
-259 -320 0
-267 -274 0
-267 -280 0
-267 -286 0
-267 -287 0
-267 -288 0
-267 -289 0
-267 -290 0
-267 -320 0
-274 -280 0
-274 -286 0
-274 -287 0
-274 -288 0
-274 -289 0
-274 -290 0
-274 -320 0
-280 -286 0
-280 -287 0
-280 -288 0
-280 -289 0
-280 -290 0
-280 -320 0
-286 -287 0
-286 -288 0
-286 -289 0
-286 -290 0
-286 -320 0
-287 -288 0
-287 -289 0
-287 -290 0
-287 -320 0
-288 -289 0
-288 -290 0
-288 -320 0
-289 -290 0
-289 -320 0
-290 -320 0
20 43 65 86 106 125 143 160 176 191 205 218 230 241 251 260 268 275 281 286 291 292 293 294 321 0
-20 -43 0
-20 -65 0
-20 -86 0
-20 -106 0
-20 -125 0
-20 -143 0
-20 -160 0
-20 -176 0
-20 -191 0
-20 -205 0
-20 -218 0
-20 -230 0
-20 -241 0
-20 -251 0
-20 -260 0
-20 -268 0
-20 -275 0
-20 -281 0
-20 -286 0
-20 -291 0
-20 -292 0
-20 -293 0
-20 -294 0
-20 -321 0
-43 -65 0
-43 -86 0
-43 -106 0
-43 -125 0
-43 -143 0
-43 -160 0
-43 -176 0
-43 -191 0
-43 -205 0
-43 -218 0
-43 -230 0
-43 -241 0
-43 -251 0
-43 -260 0
-43 -268 0
-43 -275 0
-43 -281 0
-43 -286 0
-43 -291 0
-43 -292 0
-43 -293 0
-43 -294 0
-43 -321 0
-65 -86 0
-65 -106 0
-65 -125 0
-65 -143 0
-65 -160 0
-65 -176 0
-65 -191 0
-65 -205 0
-65 -218 0
-65 -230 0
-65 -241 0
-65 -251 0
-65 -260 0
-65 -268 0
-65 -275 0
-65 -281 0
-65 -286 0
-65 -291 0
-65 -292 0
-65 -293 0
-65 -294 0
-65 -321 0
-86 -106 0
-86 -125 0
-86 -143 0
-86 -160 0
-86 -176 0
-86 -191 0
-86 -205 0
-86 -218 0
-86 -230 0
-86 -241 0
-86 -251 0
-86 -260 0
-86 -268 0
-86 -275 0
-86 -281 0
-86 -286 0
-86 -291 0
-86 -292 0
-86 -293 0
-86 -294 0
-86 -321 0
-106 -125 0
-106 -143 0
-106 -160 0
-106 -176 0
-106 -191 0
-106 -205 0
-106 -218 0
-106 -230 0
-106 -241 0
-106 -251 0
-106 -260 0
-106 -268 0
-106 -275 0
-106 -281 0
-106 -286 0
-106 -291 0
-106 -292 0
-106 -293 0
-106 -294 0
-106 -321 0
-125 -143 0
-125 -160 0
-125 -176 0
-125 -191 0
-125 -205 0
-125 -218 0
-125 -230 0
-125 -241 0
-125 -251 0
-125 -260 0
-125 -268 0
-125 -275 0
-125 -281 0
-125 -286 0
-125 -291 0
-125 -292 0
-125 -293 0
-125 -294 0
-125 -321 0
-143 -160 0
-143 -176 0
-143 -191 0
-143 -205 0
-143 -218 0
-143 -230 0
-143 -241 0
-143 -251 0
-143 -260 0
-143 -268 0
-143 -275 0
-143 -281 0
-143 -286 0
-143 -291 0
-143 -292 0
-143 -293 0
-143 -294 0
-143 -321 0
-160 -176 0
-160 -191 0
-160 -205 0
-160 -218 0
-160 -230 0
-160 -241 0
-160 -251 0
-160 -260 0
-160 -268 0
-160 -275 0
-160 -281 0
-160 -286 0
-160 -291 0
-160 -292 0
-160 -293 0
-160 -294 0
-160 -321 0
-176 -191 0
-176 -205 0
-176 -218 0
-176 -230 0
-176 -241 0
-176 -251 0
-176 -260 0
-176 -268 0
-176 -275 0
-176 -281 0
-176 -286 0
-176 -291 0
-176 -292 0
-176 -293 0
-176 -294 0
-176 -321 0
-191 -205 0
-191 -218 0
-191 -230 0
-191 -241 0
-191 -251 0
-191 -260 0
-191 -268 0
-191 -275 0
-191 -281 0
-191 -286 0
-191 -291 0
-191 -292 0
-191 -293 0
-191 -294 0
-191 -321 0
-205 -218 0
-205 -230 0
-205 -241 0
-205 -251 0
-205 -260 0
-205 -268 0
-205 -275 0
-205 -281 0
-205 -286 0
-205 -291 0
-205 -292 0
-205 -293 0
-205 -294 0
-205 -321 0
-218 -230 0
-218 -241 0
-218 -251 0
-218 -260 0
-218 -268 0
-218 -275 0
-218 -281 0
-218 -286 0
-218 -291 0
-218 -292 0
-218 -293 0
-218 -294 0
-218 -321 0
-230 -241 0
-230 -251 0
-230 -260 0
-230 -268 0
-230 -275 0
-230 -281 0
-230 -286 0
-230 -291 0
-230 -292 0
-230 -293 0
-230 -294 0
-230 -321 0
-241 -251 0
-241 -260 0
-241 -268 0
-241 -275 0
-241 -281 0
-241 -286 0
-241 -291 0
-241 -292 0
-241 -293 0
-241 -294 0
-241 -321 0
-251 -260 0
-251 -268 0
-251 -275 0
-251 -281 0
-251 -286 0
-251 -291 0
-251 -292 0
-251 -293 0
-251 -294 0
-251 -321 0
-260 -268 0
-260 -275 0
-260 -281 0
-260 -286 0
-260 -291 0
-260 -292 0
-260 -293 0
-260 -294 0
-260 -321 0
-268 -275 0
-268 -281 0
-268 -286 0
-268 -291 0
-268 -292 0
-268 -293 0
-268 -294 0
-268 -321 0
-275 -281 0
-275 -286 0
-275 -291 0
-275 -292 0
-275 -293 0
-275 -294 0
-275 -321 0
-281 -286 0
-281 -291 0
-281 -292 0
-281 -293 0
-281 -294 0
-281 -321 0
-286 -291 0
-286 -292 0
-286 -293 0
-286 -294 0
-286 -321 0
-291 -292 0
-291 -293 0
-291 -294 0
-291 -321 0
-292 -293 0
-292 -294 0
-292 -321 0
-293 -294 0
-293 -321 0
-294 -321 0
21 44 66 87 107 126 144 161 177 192 206 219 231 242 252 261 269 276 282 287 291 295 296 297 322 0
-21 -44 0
-21 -66 0
-21 -87 0
-21 -107 0
-21 -126 0
-21 -144 0
-21 -161 0
-21 -177 0
-21 -192 0
-21 -206 0
-21 -219 0
-21 -231 0
-21 -242 0
-21 -252 0
-21 -261 0
-21 -269 0
-21 -276 0
-21 -282 0
-21 -287 0
-21 -291 0
-21 -295 0
-21 -296 0
-21 -297 0
-21 -322 0
-44 -66 0
-44 -87 0
-44 -107 0
-44 -126 0
-44 -144 0
-44 -161 0
-44 -177 0
-44 -192 0
-44 -206 0
-44 -219 0
-44 -231 0
-44 -242 0
-44 -252 0
-44 -261 0
-44 -269 0
-44 -276 0
-44 -282 0
-44 -287 0
-44 -291 0
-44 -295 0
-44 -296 0
-44 -297 0
-44 -322 0
-66 -87 0
-66 -107 0
-66 -126 0
-66 -144 0
-66 -161 0
-66 -177 0
-66 -192 0
-66 -206 0
-66 -219 0
-66 -231 0
-66 -242 0
-66 -252 0
-66 -261 0
-66 -269 0
-66 -276 0
-66 -282 0
-66 -287 0
-66 -291 0
-66 -295 0
-66 -296 0
-66 -297 0
-66 -322 0
-87 -107 0
-87 -126 0
-87 -144 0
-87 -161 0
-87 -177 0
-87 -192 0
-87 -206 0
-87 -219 0
-87 -231 0
-87 -242 0
-87 -252 0
-87 -261 0
-87 -269 0
-87 -276 0
-87 -282 0
-87 -287 0
-87 -291 0
-87 -295 0
-87 -296 0
-87 -297 0
-87 -322 0
-107 -126 0
-107 -144 0
-107 -161 0
-107 -177 0
-107 -192 0
-107 -206 0
-107 -219 0
-107 -231 0
-107 -242 0
-107 -252 0
-107 -261 0
-107 -269 0
-107 -276 0
-107 -282 0
-107 -287 0
-107 -291 0
-107 -295 0
-107 -296 0
-107 -297 0
-107 -322 0
-126 -144 0
-126 -161 0
-126 -177 0
-126 -192 0
-126 -206 0
-126 -219 0
-126 -231 0
-126 -242 0
-126 -252 0
-126 -261 0
-126 -269 0
-126 -276 0
-126 -282 0
-126 -287 0
-126 -291 0
-126 -295 0
-126 -296 0
-126 -297 0
-126 -322 0
-144 -161 0
-144 -177 0
-144 -192 0
-144 -206 0
-144 -219 0
-144 -231 0
-144 -242 0
-144 -252 0
-144 -261 0
-144 -269 0
-144 -276 0
-144 -282 0
-144 -287 0
-144 -291 0
-144 -295 0
-144 -296 0
-144 -297 0
-144 -322 0
-161 -177 0
-161 -192 0
-161 -206 0
-161 -219 0
-161 -231 0
-161 -242 0
-161 -252 0
-161 -261 0
-161 -269 0
-161 -276 0
-161 -282 0
-161 -287 0
-161 -291 0
-161 -295 0
-161 -296 0
-161 -297 0
-161 -322 0
-177 -192 0
-177 -206 0
-177 -219 0
-177 -231 0
-177 -242 0
-177 -252 0
-177 -261 0
-177 -269 0
-177 -276 0
-177 -282 0
-177 -287 0
-177 -291 0
-177 -295 0
-177 -296 0
-177 -297 0
-177 -322 0
-192 -206 0
-192 -219 0
-192 -231 0
-192 -242 0
-192 -252 0
-192 -261 0
-192 -269 0
-192 -276 0
-192 -282 0
-192 -287 0
-192 -291 0
-192 -295 0
-192 -296 0
-192 -297 0
-192 -322 0
-206 -219 0
-206 -231 0
-206 -242 0
-206 -252 0
-206 -261 0
-206 -269 0
-206 -276 0
-206 -282 0
-206 -287 0
-206 -291 0
-206 -295 0
-206 -296 0
-206 -297 0
-206 -322 0
-219 -231 0
-219 -242 0
-219 -252 0
-219 -261 0
-219 -269 0
-219 -276 0
-219 -282 0
-219 -287 0
-219 -291 0
-219 -295 0
-219 -296 0
-219 -297 0
-219 -322 0
-231 -242 0
-231 -252 0
-231 -261 0
-231 -269 0
-231 -276 0
-231 -282 0
-231 -287 0
-231 -291 0
-231 -295 0
-231 -296 0
-231 -297 0
-231 -322 0
-242 -252 0
-242 -261 0
-242 -269 0
-242 -276 0
-242 -282 0
-242 -287 0
-242 -291 0
-242 -295 0
-242 -296 0
-242 -297 0
-242 -322 0
-252 -261 0
-252 -269 0
-252 -276 0
-252 -282 0
-252 -287 0
-252 -291 0
-252 -295 0
-252 -296 0
-252 -297 0
-252 -322 0
-261 -269 0
-261 -276 0
-261 -282 0
-261 -287 0
-261 -291 0
-261 -295 0
-261 -296 0
-261 -297 0
-261 -322 0
-269 -276 0
-269 -282 0
-269 -287 0
-269 -291 0
-269 -295 0
-269 -296 0
-269 -297 0
-269 -322 0
-276 -282 0
-276 -287 0
-276 -291 0
-276 -295 0
-276 -296 0
-276 -297 0
-276 -322 0
-282 -287 0
-282 -291 0
-282 -295 0
-282 -296 0
-282 -297 0
-282 -322 0
-287 -291 0
-287 -295 0
-287 -296 0
-287 -297 0
-287 -322 0
-291 -295 0
-291 -296 0
-291 -297 0
-291 -322 0
-295 -296 0
-295 -297 0
-295 -322 0
-296 -297 0
-296 -322 0
-297 -322 0
22 45 67 88 108 127 145 162 178 193 207 220 232 243 253 262 270 277 283 288 292 295 298 299 323 0
-22 -45 0
-22 -67 0
-22 -88 0
-22 -108 0
-22 -127 0
-22 -145 0
-22 -162 0
-22 -178 0
-22 -193 0
-22 -207 0
-22 -220 0
-22 -232 0
-22 -243 0
-22 -253 0
-22 -262 0
-22 -270 0
-22 -277 0
-22 -283 0
-22 -288 0
-22 -292 0
-22 -295 0
-22 -298 0
-22 -299 0
-22 -323 0
-45 -67 0
-45 -88 0
-45 -108 0
-45 -127 0
-45 -145 0
-45 -162 0
-45 -178 0
-45 -193 0
-45 -207 0
-45 -220 0
-45 -232 0
-45 -243 0
-45 -253 0
-45 -262 0
-45 -270 0
-45 -277 0
-45 -283 0
-45 -288 0
-45 -292 0
-45 -295 0
-45 -298 0
-45 -299 0
-45 -323 0
-67 -88 0
-67 -108 0
-67 -127 0
-67 -145 0
-67 -162 0
-67 -178 0
-67 -193 0
-67 -207 0
-67 -220 0
-67 -232 0
-67 -243 0
-67 -253 0
-67 -262 0
-67 -270 0
-67 -277 0
-67 -283 0
-67 -288 0
-67 -292 0
-67 -295 0
-67 -298 0
-67 -299 0
-67 -323 0
-88 -108 0
-88 -127 0
-88 -145 0
-88 -162 0
-88 -178 0
-88 -193 0
-88 -207 0
-88 -220 0
-88 -232 0
-88 -243 0
-88 -253 0
-88 -262 0
-88 -270 0
-88 -277 0
-88 -283 0
-88 -288 0
-88 -292 0
-88 -295 0
-88 -298 0
-88 -299 0
-88 -323 0
-108 -127 0
-108 -145 0
-108 -162 0
-108 -178 0
-108 -193 0
-108 -207 0
-108 -220 0
-108 -232 0
-108 -243 0
-108 -253 0
-108 -262 0
-108 -270 0
-108 -277 0
-108 -283 0
-108 -288 0
-108 -292 0
-108 -295 0
-108 -298 0
-108 -299 0
-108 -323 0
-127 -145 0
-127 -162 0
-127 -178 0
-127 -193 0
-127 -207 0
-127 -220 0
-127 -232 0
-127 -243 0
-127 -253 0
-127 -262 0
-127 -270 0
-127 -277 0
-127 -283 0
-127 -288 0
-127 -292 0
-127 -295 0
-127 -298 0
-127 -299 0
-127 -323 0
-145 -162 0
-145 -178 0
-145 -193 0
-145 -207 0
-145 -220 0
-145 -232 0
-145 -243 0
-145 -253 0
-145 -262 0
-145 -270 0
-145 -277 0
-145 -283 0
-145 -288 0
-145 -292 0
-145 -295 0
-145 -298 0
-145 -299 0
-145 -323 0
-162 -178 0
-162 -193 0
-162 -207 0
-162 -220 0
-162 -232 0
-162 -243 0
-162 -253 0
-162 -262 0
-162 -270 0
-162 -277 0
-162 -283 0
-162 -288 0
-162 -292 0
-162 -295 0
-162 -298 0
-162 -299 0
-162 -323 0
-178 -193 0
-178 -207 0
-178 -220 0
-178 -232 0
-178 -243 0
-178 -253 0
-178 -262 0
-178 -270 0
-178 -277 0
-178 -283 0
-178 -288 0
-178 -292 0
-178 -295 0
-178 -298 0
-178 -299 0
-178 -323 0
-193 -207 0
-193 -220 0
-193 -232 0
-193 -243 0
-193 -253 0
-193 -262 0
-193 -270 0
-193 -277 0
-193 -283 0
-193 -288 0
-193 -292 0
-193 -295 0
-193 -298 0
-193 -299 0
-193 -323 0
-207 -220 0
-207 -232 0
-207 -243 0
-207 -253 0
-207 -262 0
-207 -270 0
-207 -277 0
-207 -283 0
-207 -288 0
-207 -292 0
-207 -295 0
-207 -298 0
-207 -299 0
-207 -323 0
-220 -232 0
-220 -243 0
-220 -253 0
-220 -262 0
-220 -270 0
-220 -277 0
-220 -283 0
-220 -288 0
-220 -292 0
-220 -295 0
-220 -298 0
-220 -299 0
-220 -323 0
-232 -243 0
-232 -253 0
-232 -262 0
-232 -270 0
-232 -277 0
-232 -283 0
-232 -288 0
-232 -292 0
-232 -295 0
-232 -298 0
-232 -299 0
-232 -323 0
-243 -253 0
-243 -262 0
-243 -270 0
-243 -277 0
-243 -283 0
-243 -288 0
-243 -292 0
-243 -295 0
-243 -298 0
-243 -299 0
-243 -323 0
-253 -262 0
-253 -270 0
-253 -277 0
-253 -283 0
-253 -288 0
-253 -292 0
-253 -295 0
-253 -298 0
-253 -299 0
-253 -323 0
-262 -270 0
-262 -277 0
-262 -283 0
-262 -288 0
-262 -292 0
-262 -295 0
-262 -298 0
-262 -299 0
-262 -323 0
-270 -277 0
-270 -283 0
-270 -288 0
-270 -292 0
-270 -295 0
-270 -298 0
-270 -299 0
-270 -323 0
-277 -283 0
-277 -288 0
-277 -292 0
-277 -295 0
-277 -298 0
-277 -299 0
-277 -323 0
-283 -288 0
-283 -292 0
-283 -295 0
-283 -298 0
-283 -299 0
-283 -323 0
-288 -292 0
-288 -295 0
-288 -298 0
-288 -299 0
-288 -323 0
-292 -295 0
-292 -298 0
-292 -299 0
-292 -323 0
-295 -298 0
-295 -299 0
-295 -323 0
-298 -299 0
-298 -323 0
-299 -323 0
23 46 68 89 109 128 146 163 179 194 208 221 233 244 254 263 271 278 284 289 293 296 298 300 324 0
-23 -46 0
-23 -68 0
-23 -89 0
-23 -109 0
-23 -128 0
-23 -146 0
-23 -163 0
-23 -179 0
-23 -194 0
-23 -208 0
-23 -221 0
-23 -233 0
-23 -244 0
-23 -254 0
-23 -263 0
-23 -271 0
-23 -278 0
-23 -284 0
-23 -289 0
-23 -293 0
-23 -296 0
-23 -298 0
-23 -300 0
-23 -324 0
-46 -68 0
-46 -89 0
-46 -109 0
-46 -128 0
-46 -146 0
-46 -163 0
-46 -179 0
-46 -194 0
-46 -208 0
-46 -221 0
-46 -233 0
-46 -244 0
-46 -254 0
-46 -263 0
-46 -271 0
-46 -278 0
-46 -284 0
-46 -289 0
-46 -293 0
-46 -296 0
-46 -298 0
-46 -300 0
-46 -324 0
-68 -89 0
-68 -109 0
-68 -128 0
-68 -146 0
-68 -163 0
-68 -179 0
-68 -194 0
-68 -208 0
-68 -221 0
-68 -233 0
-68 -244 0
-68 -254 0
-68 -263 0
-68 -271 0
-68 -278 0
-68 -284 0
-68 -289 0
-68 -293 0
-68 -296 0
-68 -298 0
-68 -300 0
-68 -324 0
-89 -109 0
-89 -128 0
-89 -146 0
-89 -163 0
-89 -179 0
-89 -194 0
-89 -208 0
-89 -221 0
-89 -233 0
-89 -244 0
-89 -254 0
-89 -263 0
-89 -271 0
-89 -278 0
-89 -284 0
-89 -289 0
-89 -293 0
-89 -296 0
-89 -298 0
-89 -300 0
-89 -324 0
-109 -128 0
-109 -146 0
-109 -163 0
-109 -179 0
-109 -194 0
-109 -208 0
-109 -221 0
-109 -233 0
-109 -244 0
-109 -254 0
-109 -263 0
-109 -271 0
-109 -278 0
-109 -284 0
-109 -289 0
-109 -293 0
-109 -296 0
-109 -298 0
-109 -300 0
-109 -324 0
-128 -146 0
-128 -163 0
-128 -179 0
-128 -194 0
-128 -208 0
-128 -221 0
-128 -233 0
-128 -244 0
-128 -254 0
-128 -263 0
-128 -271 0
-128 -278 0
-128 -284 0
-128 -289 0
-128 -293 0
-128 -296 0
-128 -298 0
-128 -300 0
-128 -324 0
-146 -163 0
-146 -179 0
-146 -194 0
-146 -208 0
-146 -221 0
-146 -233 0
-146 -244 0
-146 -254 0
-146 -263 0
-146 -271 0
-146 -278 0
-146 -284 0
-146 -289 0
-146 -293 0
-146 -296 0
-146 -298 0
-146 -300 0
-146 -324 0
-163 -179 0
-163 -194 0
-163 -208 0
-163 -221 0
-163 -233 0
-163 -244 0
-163 -254 0
-163 -263 0
-163 -271 0
-163 -278 0
-163 -284 0
-163 -289 0
-163 -293 0
-163 -296 0
-163 -298 0
-163 -300 0
-163 -324 0
-179 -194 0
-179 -208 0
-179 -221 0
-179 -233 0
-179 -244 0
-179 -254 0
-179 -263 0
-179 -271 0
-179 -278 0
-179 -284 0
-179 -289 0
-179 -293 0
-179 -296 0
-179 -298 0
-179 -300 0
-179 -324 0
-194 -208 0
-194 -221 0
-194 -233 0
-194 -244 0
-194 -254 0
-194 -263 0
-194 -271 0
-194 -278 0
-194 -284 0
-194 -289 0
-194 -293 0
-194 -296 0
-194 -298 0
-194 -300 0
-194 -324 0
-208 -221 0
-208 -233 0
-208 -244 0
-208 -254 0
-208 -263 0
-208 -271 0
-208 -278 0
-208 -284 0
-208 -289 0
-208 -293 0
-208 -296 0
-208 -298 0
-208 -300 0
-208 -324 0
-221 -233 0
-221 -244 0
-221 -254 0
-221 -263 0
-221 -271 0
-221 -278 0
-221 -284 0
-221 -289 0
-221 -293 0
-221 -296 0
-221 -298 0
-221 -300 0
-221 -324 0
-233 -244 0
-233 -254 0
-233 -263 0
-233 -271 0
-233 -278 0
-233 -284 0
-233 -289 0
-233 -293 0
-233 -296 0
-233 -298 0
-233 -300 0
-233 -324 0
-244 -254 0
-244 -263 0
-244 -271 0
-244 -278 0
-244 -284 0
-244 -289 0
-244 -293 0
-244 -296 0
-244 -298 0
-244 -300 0
-244 -324 0
-254 -263 0
-254 -271 0
-254 -278 0
-254 -284 0
-254 -289 0
-254 -293 0
-254 -296 0
-254 -298 0
-254 -300 0
-254 -324 0
-263 -271 0
-263 -278 0
-263 -284 0
-263 -289 0
-263 -293 0
-263 -296 0
-263 -298 0
-263 -300 0
-263 -324 0
-271 -278 0
-271 -284 0
-271 -289 0
-271 -293 0
-271 -296 0
-271 -298 0
-271 -300 0
-271 -324 0
-278 -284 0
-278 -289 0
-278 -293 0
-278 -296 0
-278 -298 0
-278 -300 0
-278 -324 0
-284 -289 0
-284 -293 0
-284 -296 0
-284 -298 0
-284 -300 0
-284 -324 0
-289 -293 0
-289 -296 0
-289 -298 0
-289 -300 0
-289 -324 0
-293 -296 0
-293 -298 0
-293 -300 0
-293 -324 0
-296 -298 0
-296 -300 0
-296 -324 0
-298 -300 0
-298 -324 0
-300 -324 0
24 47 69 90 110 129 147 164 180 195 209 222 234 245 255 264 272 279 285 290 294 297 299 300 325 0
-24 -47 0
-24 -69 0
-24 -90 0
-24 -110 0
-24 -129 0
-24 -147 0
-24 -164 0
-24 -180 0
-24 -195 0
-24 -209 0
-24 -222 0
-24 -234 0
-24 -245 0
-24 -255 0
-24 -264 0
-24 -272 0
-24 -279 0
-24 -285 0
-24 -290 0
-24 -294 0
-24 -297 0
-24 -299 0
-24 -300 0
-24 -325 0
-47 -69 0
-47 -90 0
-47 -110 0
-47 -129 0
-47 -147 0
-47 -164 0
-47 -180 0
-47 -195 0
-47 -209 0
-47 -222 0
-47 -234 0
-47 -245 0
-47 -255 0
-47 -264 0
-47 -272 0
-47 -279 0
-47 -285 0
-47 -290 0
-47 -294 0
-47 -297 0
-47 -299 0
-47 -300 0
-47 -325 0
-69 -90 0
-69 -110 0
-69 -129 0
-69 -147 0
-69 -164 0
-69 -180 0
-69 -195 0
-69 -209 0
-69 -222 0
-69 -234 0
-69 -245 0
-69 -255 0
-69 -264 0
-69 -272 0
-69 -279 0
-69 -285 0
-69 -290 0
-69 -294 0
-69 -297 0
-69 -299 0
-69 -300 0
-69 -325 0
-90 -110 0
-90 -129 0
-90 -147 0
-90 -164 0
-90 -180 0
-90 -195 0
-90 -209 0
-90 -222 0
-90 -234 0
-90 -245 0
-90 -255 0
-90 -264 0
-90 -272 0
-90 -279 0
-90 -285 0
-90 -290 0
-90 -294 0
-90 -297 0
-90 -299 0
-90 -300 0
-90 -325 0
-110 -129 0
-110 -147 0
-110 -164 0
-110 -180 0
-110 -195 0
-110 -209 0
-110 -222 0
-110 -234 0
-110 -245 0
-110 -255 0
-110 -264 0
-110 -272 0
-110 -279 0
-110 -285 0
-110 -290 0
-110 -294 0
-110 -297 0
-110 -299 0
-110 -300 0
-110 -325 0
-129 -147 0
-129 -164 0
-129 -180 0
-129 -195 0
-129 -209 0
-129 -222 0
-129 -234 0
-129 -245 0
-129 -255 0
-129 -264 0
-129 -272 0
-129 -279 0
-129 -285 0
-129 -290 0
-129 -294 0
-129 -297 0
-129 -299 0
-129 -300 0
-129 -325 0
-147 -164 0
-147 -180 0
-147 -195 0
-147 -209 0
-147 -222 0
-147 -234 0
-147 -245 0
-147 -255 0
-147 -264 0
-147 -272 0
-147 -279 0
-147 -285 0
-147 -290 0
-147 -294 0
-147 -297 0
-147 -299 0
-147 -300 0
-147 -325 0
-164 -180 0
-164 -195 0
-164 -209 0
-164 -222 0
-164 -234 0
-164 -245 0
-164 -255 0
-164 -264 0
-164 -272 0
-164 -279 0
-164 -285 0
-164 -290 0
-164 -294 0
-164 -297 0
-164 -299 0
-164 -300 0
-164 -325 0
-180 -195 0
-180 -209 0
-180 -222 0
-180 -234 0
-180 -245 0
-180 -255 0
-180 -264 0
-180 -272 0
-180 -279 0
-180 -285 0
-180 -290 0
-180 -294 0
-180 -297 0
-180 -299 0
-180 -300 0
-180 -325 0
-195 -209 0
-195 -222 0
-195 -234 0
-195 -245 0
-195 -255 0
-195 -264 0
-195 -272 0
-195 -279 0
-195 -285 0
-195 -290 0
-195 -294 0
-195 -297 0
-195 -299 0
-195 -300 0
-195 -325 0
-209 -222 0
-209 -234 0
-209 -245 0
-209 -255 0
-209 -264 0
-209 -272 0
-209 -279 0
-209 -285 0
-209 -290 0
-209 -294 0
-209 -297 0
-209 -299 0
-209 -300 0
-209 -325 0
-222 -234 0
-222 -245 0
-222 -255 0
-222 -264 0
-222 -272 0
-222 -279 0
-222 -285 0
-222 -290 0
-222 -294 0
-222 -297 0
-222 -299 0
-222 -300 0
-222 -325 0
-234 -245 0
-234 -255 0
-234 -264 0
-234 -272 0
-234 -279 0
-234 -285 0
-234 -290 0
-234 -294 0
-234 -297 0
-234 -299 0
-234 -300 0
-234 -325 0
-245 -255 0
-245 -264 0
-245 -272 0
-245 -279 0
-245 -285 0
-245 -290 0
-245 -294 0
-245 -297 0
-245 -299 0
-245 -300 0
-245 -325 0
-255 -264 0
-255 -272 0
-255 -279 0
-255 -285 0
-255 -290 0
-255 -294 0
-255 -297 0
-255 -299 0
-255 -300 0
-255 -325 0
-264 -272 0
-264 -279 0
-264 -285 0
-264 -290 0
-264 -294 0
-264 -297 0
-264 -299 0
-264 -300 0
-264 -325 0
-272 -279 0
-272 -285 0
-272 -290 0
-272 -294 0
-272 -297 0
-272 -299 0
-272 -300 0
-272 -325 0
-279 -285 0
-279 -290 0
-279 -294 0
-279 -297 0
-279 -299 0
-279 -300 0
-279 -325 0
-285 -290 0
-285 -294 0
-285 -297 0
-285 -299 0
-285 -300 0
-285 -325 0
-290 -294 0
-290 -297 0
-290 -299 0
-290 -300 0
-290 -325 0
-294 -297 0
-294 -299 0
-294 -300 0
-294 -325 0
-297 -299 0
-297 -300 0
-297 -325 0
-299 -300 0
-299 -325 0
-300 -325 0
301 302 303 304 305 306 307 308 309 310 311 312 313 314 315 316 317 318 319 320 321 322 323 324 325 0
-301 -302 0
-301 -303 0
-301 -304 0
-301 -305 0
-301 -306 0
-301 -307 0
-301 -308 0
-301 -309 0
-301 -310 0
-301 -311 0
-301 -312 0
-301 -313 0
-301 -314 0
-301 -315 0
-301 -316 0
-301 -317 0
-301 -318 0
-301 -319 0
-301 -320 0
-301 -321 0
-301 -322 0
-301 -323 0
-301 -324 0
-301 -325 0
-302 -303 0
-302 -304 0
-302 -305 0
-302 -306 0
-302 -307 0
-302 -308 0
-302 -309 0
-302 -310 0
-302 -311 0
-302 -312 0
-302 -313 0
-302 -314 0
-302 -315 0
-302 -316 0
-302 -317 0
-302 -318 0
-302 -319 0
-302 -320 0
-302 -321 0
-302 -322 0
-302 -323 0
-302 -324 0
-302 -325 0
-303 -304 0
-303 -305 0
-303 -306 0
-303 -307 0
-303 -308 0
-303 -309 0
-303 -310 0
-303 -311 0
-303 -312 0
-303 -313 0
-303 -314 0
-303 -315 0
-303 -316 0
-303 -317 0
-303 -318 0
-303 -319 0
-303 -320 0
-303 -321 0
-303 -322 0
-303 -323 0
-303 -324 0
-303 -325 0
-304 -305 0
-304 -306 0
-304 -307 0
-304 -308 0
-304 -309 0
-304 -310 0
-304 -311 0
-304 -312 0
-304 -313 0
-304 -314 0
-304 -315 0
-304 -316 0
-304 -317 0
-304 -318 0
-304 -319 0
-304 -320 0
-304 -321 0
-304 -322 0
-304 -323 0
-304 -324 0
-304 -325 0
-305 -306 0
-305 -307 0
-305 -308 0
-305 -309 0
-305 -310 0
-305 -311 0
-305 -312 0
-305 -313 0
-305 -314 0
-305 -315 0
-305 -316 0
-305 -317 0
-305 -318 0
-305 -319 0
-305 -320 0
-305 -321 0
-305 -322 0
-305 -323 0
-305 -324 0
-305 -325 0
-306 -307 0
-306 -308 0
-306 -309 0
-306 -310 0
-306 -311 0
-306 -312 0
-306 -313 0
-306 -314 0
-306 -315 0
-306 -316 0
-306 -317 0
-306 -318 0
-306 -319 0
-306 -320 0
-306 -321 0
-306 -322 0
-306 -323 0
-306 -324 0
-306 -325 0
-307 -308 0
-307 -309 0
-307 -310 0
-307 -311 0
-307 -312 0
-307 -313 0
-307 -314 0
-307 -315 0
-307 -316 0
-307 -317 0
-307 -318 0
-307 -319 0
-307 -320 0
-307 -321 0
-307 -322 0
-307 -323 0
-307 -324 0
-307 -325 0
-308 -309 0
-308 -310 0
-308 -311 0
-308 -312 0
-308 -313 0
-308 -314 0
-308 -315 0
-308 -316 0
-308 -317 0
-308 -318 0
-308 -319 0
-308 -320 0
-308 -321 0
-308 -322 0
-308 -323 0
-308 -324 0
-308 -325 0
-309 -310 0
-309 -311 0
-309 -312 0
-309 -313 0
-309 -314 0
-309 -315 0
-309 -316 0
-309 -317 0
-309 -318 0
-309 -319 0
-309 -320 0
-309 -321 0
-309 -322 0
-309 -323 0
-309 -324 0
-309 -325 0
-310 -311 0
-310 -312 0
-310 -313 0
-310 -314 0
-310 -315 0
-310 -316 0
-310 -317 0
-310 -318 0
-310 -319 0
-310 -320 0
-310 -321 0
-310 -322 0
-310 -323 0
-310 -324 0
-310 -325 0
-311 -312 0
-311 -313 0
-311 -314 0
-311 -315 0
-311 -316 0
-311 -317 0
-311 -318 0
-311 -319 0
-311 -320 0
-311 -321 0
-311 -322 0
-311 -323 0
-311 -324 0
-311 -325 0
-312 -313 0
-312 -314 0
-312 -315 0
-312 -316 0
-312 -317 0
-312 -318 0
-312 -319 0
-312 -320 0
-312 -321 0
-312 -322 0
-312 -323 0
-312 -324 0
-312 -325 0
-313 -314 0
-313 -315 0
-313 -316 0
-313 -317 0
-313 -318 0
-313 -319 0
-313 -320 0
-313 -321 0
-313 -322 0
-313 -323 0
-313 -324 0
-313 -325 0
-314 -315 0
-314 -316 0
-314 -317 0
-314 -318 0
-314 -319 0
-314 -320 0
-314 -321 0
-314 -322 0
-314 -323 0
-314 -324 0
-314 -325 0
-315 -316 0
-315 -317 0
-315 -318 0
-315 -319 0
-315 -320 0
-315 -321 0
-315 -322 0
-315 -323 0
-315 -324 0
-315 -325 0
-316 -317 0
-316 -318 0
-316 -319 0
-316 -320 0
-316 -321 0
-316 -322 0
-316 -323 0
-316 -324 0
-316 -325 0
-317 -318 0
-317 -319 0
-317 -320 0
-317 -321 0
-317 -322 0
-317 -323 0
-317 -324 0
-317 -325 0
-318 -319 0
-318 -320 0
-318 -321 0
-318 -322 0
-318 -323 0
-318 -324 0
-318 -325 0
-319 -320 0
-319 -321 0
-319 -322 0
-319 -323 0
-319 -324 0
-319 -325 0
-320 -321 0
-320 -322 0
-320 -323 0
-320 -324 0
-320 -325 0
-321 -322 0
-321 -323 0
-321 -324 0
-321 -325 0
-322 -323 0
-322 -324 0
-322 -325 0
-323 -324 0
-323 -325 0
-324 -325 0
-326 1 0
-1 326 0
-327 2 0
-2 327 0
-328 3 0
-3 328 0
-329 4 0
-4 329 0
-330 5 0
-5 330 0
-331 6 0
-6 331 0
-332 7 0
-7 332 0
-333 8 0
-8 333 0
-334 9 0
-9 334 0
-335 10 0
-10 335 0
-336 11 0
-11 336 0
-337 12 0
-12 337 0
-338 13 0
-13 338 0
-339 14 0
-14 339 0
-340 15 0
-15 340 0
-341 16 0
-16 341 0
-342 301 0
-301 342 0
-343 18 0
-18 343 0
-344 17 0
-17 344 0
-345 20 0
-20 345 0
-346 19 0
-19 346 0
-347 22 0
-22 347 0
-348 21 0
-21 348 0
-349 24 0
-24 349 0
-350 23 0
-23 350 0
-351 302 0
-302 351 0
-352 25 0
-25 352 0
-353 26 0
-26 353 0
-354 27 0
-27 354 0
-355 28 0
-28 355 0
-356 29 0
-29 356 0
-357 30 0
-30 357 0
-358 31 0
-31 358 0
-359 32 0
-32 359 0
-360 33 0
-33 360 0
-361 34 0
-34 361 0
-362 35 0
-35 362 0
-363 36 0
-36 363 0
-364 37 0
-37 364 0
-365 38 0
-38 365 0
-366 39 0
-39 366 0
-367 1 0
-1 367 0
-368 41 0
-41 368 0
-369 40 0
-40 369 0
-370 43 0
-43 370 0
-371 42 0
-42 371 0
-372 45 0
-45 372 0
-373 44 0
-44 373 0
-374 47 0
-47 374 0
-375 46 0
-46 375 0
-376 25 0
-25 376 0
-377 303 0
-303 377 0
-378 48 0
-48 378 0
-379 49 0
-49 379 0
-380 50 0
-50 380 0
-381 51 0
-51 381 0
-382 52 0
-52 382 0
-383 53 0
-53 383 0
-384 54 0
-54 384 0
-385 55 0
-55 385 0
-386 56 0
-56 386 0
-387 57 0
-57 387 0
-388 58 0
-58 388 0
-389 59 0
-59 389 0
-390 60 0
-60 390 0
-391 61 0
-61 391 0
-392 2 0
-2 392 0
-393 63 0
-63 393 0
-394 62 0
-62 394 0
-395 65 0
-65 395 0
-396 64 0
-64 396 0
-397 67 0
-67 397 0
-398 66 0
-66 398 0
-399 69 0
-69 399 0
-400 68 0
-68 400 0
-401 26 0
-26 401 0
-402 48 0
-48 402 0
-403 304 0
-304 403 0
-404 70 0
-70 404 0
-405 71 0
-71 405 0
-406 72 0
-72 406 0
-407 73 0
-73 407 0
-408 74 0
-74 408 0
-409 75 0
-75 409 0
-410 76 0
-76 410 0
-411 77 0
-77 411 0
-412 78 0
-78 412 0
-413 79 0
-79 413 0
-414 80 0
-80 414 0
-415 81 0
-81 415 0
-416 82 0
-82 416 0
-417 3 0
-3 417 0
-418 84 0
-84 418 0
-419 83 0
-83 419 0
-420 86 0
-86 420 0
-421 85 0
-85 421 0
-422 88 0
-88 422 0
-423 87 0
-87 423 0
-424 90 0
-90 424 0
-425 89 0
-89 425 0
-426 27 0
-27 426 0
-427 49 0
-49 427 0
-428 70 0
-70 428 0
-429 305 0
-305 429 0
-430 91 0
-91 430 0
-431 92 0
-92 431 0
-432 93 0
-93 432 0
-433 94 0
-94 433 0
-434 95 0
-95 434 0
-435 96 0
-96 435 0
-436 97 0
-97 436 0
-437 98 0
-98 437 0
-438 99 0
-99 438 0
-439 100 0
-100 439 0
-440 101 0
-101 440 0
-441 102 0
-102 441 0
-442 4 0
-4 442 0
-443 104 0
-104 443 0
-444 103 0
-103 444 0
-445 106 0
-106 445 0
-446 105 0
-105 446 0
-447 108 0
-108 447 0
-448 107 0
-107 448 0
-449 110 0
-110 449 0
-450 109 0
-109 450 0
-451 28 0
-28 451 0
-452 50 0
-50 452 0
-453 71 0
-71 453 0
-454 91 0
-91 454 0
-455 306 0
-306 455 0
-456 111 0
-111 456 0
-457 112 0
-112 457 0
-458 113 0
-113 458 0
-459 114 0
-114 459 0
-460 115 0
-115 460 0
-461 116 0
-116 461 0
-462 117 0
-117 462 0
-463 118 0
-118 463 0
-464 119 0
-119 464 0
-465 120 0
-120 465 0
-466 121 0
-121 466 0
-467 5 0
-5 467 0
-468 123 0
-123 468 0
-469 122 0
-122 469 0
-470 125 0
-125 470 0
-471 124 0
-124 471 0
-472 127 0
-127 472 0
-473 126 0
-126 473 0
-474 129 0
-129 474 0
-475 128 0
-128 475 0
-476 29 0
-29 476 0
-477 51 0
-51 477 0
-478 72 0
-72 478 0
-479 92 0
-92 479 0
-480 111 0
-111 480 0
-481 307 0
-307 481 0
-482 130 0
-130 482 0
-483 131 0
-131 483 0
-484 132 0
-132 484 0
-485 133 0
-133 485 0
-486 134 0
-134 486 0
-487 135 0
-135 487 0
-488 136 0
-136 488 0
-489 137 0
-137 489 0
-490 138 0
-138 490 0
-491 139 0
-139 491 0
-492 6 0
-6 492 0
-493 141 0
-141 493 0
-494 140 0
-140 494 0
-495 143 0
-143 495 0
-496 142 0
-142 496 0
-497 145 0
-145 497 0
-498 144 0
-144 498 0
-499 147 0
-147 499 0
-500 146 0
-146 500 0
-501 30 0
-30 501 0
-502 52 0
-52 502 0
-503 73 0
-73 503 0
-504 93 0
-93 504 0
-505 112 0
-112 505 0
-506 130 0
-130 506 0
-507 308 0
-308 507 0
-508 148 0
-148 508 0
-509 149 0
-149 509 0
-510 150 0
-150 510 0
-511 151 0
-151 511 0
-512 152 0
-152 512 0
-513 153 0
-153 513 0
-514 154 0
-154 514 0
-515 155 0
-155 515 0
-516 156 0
-156 516 0
-517 7 0
-7 517 0
-518 158 0
-158 518 0
-519 157 0
-157 519 0
-520 160 0
-160 520 0
-521 159 0
-159 521 0
-522 162 0
-162 522 0
-523 161 0
-161 523 0
-524 164 0
-164 524 0
-525 163 0
-163 525 0
-526 31 0
-31 526 0
-527 53 0
-53 527 0
-528 74 0
-74 528 0
-529 94 0
-94 529 0
-530 113 0
-113 530 0
-531 131 0
-131 531 0
-532 148 0
-148 532 0
-533 309 0
-309 533 0
-534 165 0
-165 534 0
-535 166 0
-166 535 0
-536 167 0
-167 536 0
-537 168 0
-168 537 0
-538 169 0
-169 538 0
-539 170 0
-170 539 0
-540 171 0
-171 540 0
-541 172 0
-172 541 0
-542 8 0
-8 542 0
-543 174 0
-174 543 0
-544 173 0
-173 544 0
-545 176 0
-176 545 0
-546 175 0
-175 546 0
-547 178 0
-178 547 0
-548 177 0
-177 548 0
-549 180 0
-180 549 0
-550 179 0
-179 550 0
-551 32 0
-32 551 0
-552 54 0
-54 552 0
-553 75 0
-75 553 0
-554 95 0
-95 554 0
-555 114 0
-114 555 0
-556 132 0
-132 556 0
-557 149 0
-149 557 0
-558 165 0
-165 558 0
-559 310 0
-310 559 0
-560 181 0
-181 560 0
-561 182 0
-182 561 0
-562 183 0
-183 562 0
-563 184 0
-184 563 0
-564 185 0
-185 564 0
-565 186 0
-186 565 0
-566 187 0
-187 566 0
-567 9 0
-9 567 0
-568 189 0
-189 568 0
-569 188 0
-188 569 0
-570 191 0
-191 570 0
-571 190 0
-190 571 0
-572 193 0
-193 572 0
-573 192 0
-192 573 0
-574 195 0
-195 574 0
-575 194 0
-194 575 0
-576 33 0
-33 576 0
-577 55 0
-55 577 0
-578 76 0
-76 578 0
-579 96 0
-96 579 0
-580 115 0
-115 580 0
-581 133 0
-133 581 0
-582 150 0
-150 582 0
-583 166 0
-166 583 0
-584 181 0
-181 584 0
-585 311 0
-311 585 0
-586 196 0
-196 586 0
-587 197 0
-197 587 0
-588 198 0
-198 588 0
-589 199 0
-199 589 0
-590 200 0
-200 590 0
-591 201 0
-201 591 0
-592 10 0
-10 592 0
-593 203 0
-203 593 0
-594 202 0
-202 594 0
-595 205 0
-205 595 0
-596 204 0
-204 596 0
-597 207 0
-207 597 0
-598 206 0
-206 598 0
-599 209 0
-209 599 0
-600 208 0
-208 600 0
-601 34 0
-34 601 0
-602 56 0
-56 602 0
-603 77 0
-77 603 0
-604 97 0
-97 604 0
-605 116 0
-116 605 0
-606 134 0
-134 606 0
-607 151 0
-151 607 0
-608 167 0
-167 608 0
-609 182 0
-182 609 0
-610 196 0
-196 610 0
-611 312 0
-312 611 0
-612 210 0
-210 612 0
-613 211 0
-211 613 0
-614 212 0
-212 614 0
-615 213 0
-213 615 0
-616 214 0
-214 616 0
-617 11 0
-11 617 0
-618 216 0
-216 618 0
-619 215 0
-215 619 0
-620 218 0
-218 620 0
-621 217 0
-217 621 0
-622 220 0
-220 622 0
-623 219 0
-219 623 0
-624 222 0
-222 624 0
-625 221 0
-221 625 0
-626 35 0
-35 626 0
-627 57 0
-57 627 0
-628 78 0
-78 628 0
-629 98 0
-98 629 0
-630 117 0
-117 630 0
-631 135 0
-135 631 0
-632 152 0
-152 632 0
-633 168 0
-168 633 0
-634 183 0
-183 634 0
-635 197 0
-197 635 0
-636 210 0
-210 636 0
-637 313 0
-313 637 0
-638 223 0
-223 638 0
-639 224 0
-224 639 0
-640 225 0
-225 640 0
-641 226 0
-226 641 0
-642 12 0
-12 642 0
-643 228 0
-228 643 0
-644 227 0
-227 644 0
-645 230 0
-230 645 0
-646 229 0
-229 646 0
-647 232 0
-232 647 0
-648 231 0
-231 648 0
-649 234 0
-234 649 0
-650 233 0
-233 650 0
-651 36 0
-36 651 0
-652 58 0
-58 652 0
-653 79 0
-79 653 0
-654 99 0
-99 654 0
-655 118 0
-118 655 0
-656 136 0
-136 656 0
-657 153 0
-153 657 0
-658 169 0
-169 658 0
-659 184 0
-184 659 0
-660 198 0
-198 660 0
-661 211 0
-211 661 0
-662 223 0
-223 662 0
-663 314 0
-314 663 0
-664 235 0
-235 664 0
-665 236 0
-236 665 0
-666 237 0
-237 666 0
-667 13 0
-13 667 0
-668 239 0
-239 668 0
-669 238 0
-238 669 0
-670 241 0
-241 670 0
-671 240 0
-240 671 0
-672 243 0
-243 672 0
-673 242 0
-242 673 0
-674 245 0
-245 674 0
-675 244 0
-244 675 0
-676 37 0
-37 676 0
-677 59 0
-59 677 0
-678 80 0
-80 678 0
-679 100 0
-100 679 0
-680 119 0
-119 680 0
-681 137 0
-137 681 0
-682 154 0
-154 682 0
-683 170 0
-170 683 0
-684 185 0
-185 684 0
-685 199 0
-199 685 0
-686 212 0
-212 686 0
-687 224 0
-224 687 0
-688 235 0
-235 688 0
-689 315 0
-315 689 0
-690 246 0
-246 690 0
-691 247 0
-247 691 0
-692 14 0
-14 692 0
-693 249 0
-249 693 0
-694 248 0
-248 694 0
-695 251 0
-251 695 0
-696 250 0
-250 696 0
-697 253 0
-253 697 0
-698 252 0
-252 698 0
-699 255 0
-255 699 0
-700 254 0
-254 700 0
-701 38 0
-38 701 0
-702 60 0
-60 702 0
-703 81 0
-81 703 0
-704 101 0
-101 704 0
-705 120 0
-120 705 0
-706 138 0
-138 706 0
-707 155 0
-155 707 0
-708 171 0
-171 708 0
-709 186 0
-186 709 0
-710 200 0
-200 710 0
-711 213 0
-213 711 0
-712 225 0
-225 712 0
-713 236 0
-236 713 0
-714 246 0
-246 714 0
-715 316 0
-316 715 0
-716 256 0
-256 716 0
-717 15 0
-15 717 0
-718 258 0
-258 718 0
-719 257 0
-257 719 0
-720 260 0
-260 720 0
-721 259 0
-259 721 0
-722 262 0
-262 722 0
-723 261 0
-261 723 0
-724 264 0
-264 724 0
-725 263 0
-263 725 0
-726 39 0
-39 726 0
-727 61 0
-61 727 0
-728 82 0
-82 728 0
-729 102 0
-102 729 0
-730 121 0
-121 730 0
-731 139 0
-139 731 0
-732 156 0
-156 732 0
-733 172 0
-172 733 0
-734 187 0
-187 734 0
-735 201 0
-201 735 0
-736 214 0
-214 736 0
-737 226 0
-226 737 0
-738 237 0
-237 738 0
-739 247 0
-247 739 0
-740 256 0
-256 740 0
-741 317 0
-317 741 0
-742 16 0
-16 742 0
-743 266 0
-266 743 0
-744 265 0
-265 744 0
-745 268 0
-268 745 0
-746 267 0
-267 746 0
-747 270 0
-270 747 0
-748 269 0
-269 748 0
-749 272 0
-272 749 0
-750 271 0
-271 750 0
-751 40 0
-40 751 0
-752 62 0
-62 752 0
-753 83 0
-83 753 0
-754 103 0
-103 754 0
-755 122 0
-122 755 0
-756 140 0
-140 756 0
-757 157 0
-157 757 0
-758 173 0
-173 758 0
-759 188 0
-188 759 0
-760 202 0
-202 760 0
-761 215 0
-215 761 0
-762 227 0
-227 762 0
-763 238 0
-238 763 0
-764 248 0
-248 764 0
-765 257 0
-257 765 0
-766 265 0
-265 766 0
-767 17 0
-17 767 0
-768 273 0
-273 768 0
-769 318 0
-318 769 0
-770 275 0
-275 770 0
-771 274 0
-274 771 0
-772 277 0
-277 772 0
-773 276 0
-276 773 0
-774 279 0
-279 774 0
-775 278 0
-278 775 0
-776 41 0
-41 776 0
-777 63 0
-63 777 0
-778 84 0
-84 778 0
-779 104 0
-104 779 0
-780 123 0
-123 780 0
-781 141 0
-141 781 0
-782 158 0
-158 782 0
-783 174 0
-174 783 0
-784 189 0
-189 784 0
-785 203 0
-203 785 0
-786 216 0
-216 786 0
-787 228 0
-228 787 0
-788 239 0
-239 788 0
-789 249 0
-249 789 0
-790 258 0
-258 790 0
-791 266 0
-266 791 0
-792 18 0
-18 792 0
-793 319 0
-319 793 0
-794 273 0
-273 794 0
-795 281 0
-281 795 0
-796 280 0
-280 796 0
-797 283 0
-283 797 0
-798 282 0
-282 798 0
-799 285 0
-285 799 0
-800 284 0
-284 800 0
-801 42 0
-42 801 0
-802 64 0
-64 802 0
-803 85 0
-85 803 0
-804 105 0
-105 804 0
-805 124 0
-124 805 0
-806 142 0
-142 806 0
-807 159 0
-159 807 0
-808 175 0
-175 808 0
-809 190 0
-190 809 0
-810 204 0
-204 810 0
-811 217 0
-217 811 0
-812 229 0
-229 812 0
-813 240 0
-240 813 0
-814 250 0
-250 814 0
-815 259 0
-259 815 0
-816 267 0
-267 816 0
-817 19 0
-19 817 0
-818 280 0
-280 818 0
-819 274 0
-274 819 0
-820 286 0
-286 820 0
-821 320 0
-320 821 0
-822 288 0
-288 822 0
-823 287 0
-287 823 0
-824 290 0
-290 824 0
-825 289 0
-289 825 0
-826 43 0
-43 826 0
-827 65 0
-65 827 0
-828 86 0
-86 828 0
-829 106 0
-106 829 0
-830 125 0
-125 830 0
-831 143 0
-143 831 0
-832 160 0
-160 832 0
-833 176 0
-176 833 0
-834 191 0
-191 834 0
-835 205 0
-205 835 0
-836 218 0
-218 836 0
-837 230 0
-230 837 0
-838 241 0
-241 838 0
-839 251 0
-251 839 0
-840 260 0
-260 840 0
-841 268 0
-268 841 0
-842 20 0
-20 842 0
-843 281 0
-281 843 0
-844 275 0
-275 844 0
-845 321 0
-321 845 0
-846 286 0
-286 846 0
-847 292 0
-292 847 0
-848 291 0
-291 848 0
-849 294 0
-294 849 0
-850 293 0
-293 850 0
-851 44 0
-44 851 0
-852 66 0
-66 852 0
-853 87 0
-87 853 0
-854 107 0
-107 854 0
-855 126 0
-126 855 0
-856 144 0
-144 856 0
-857 161 0
-161 857 0
-858 177 0
-177 858 0
-859 192 0
-192 859 0
-860 206 0
-206 860 0
-861 219 0
-219 861 0
-862 231 0
-231 862 0
-863 242 0
-242 863 0
-864 252 0
-252 864 0
-865 261 0
-261 865 0
-866 269 0
-269 866 0
-867 21 0
-21 867 0
-868 282 0
-282 868 0
-869 276 0
-276 869 0
-870 291 0
-291 870 0
-871 287 0
-287 871 0
-872 295 0
-295 872 0
-873 322 0
-322 873 0
-874 297 0
-297 874 0
-875 296 0
-296 875 0
-876 45 0
-45 876 0
-877 67 0
-67 877 0
-878 88 0
-88 878 0
-879 108 0
-108 879 0
-880 127 0
-127 880 0
-881 145 0
-145 881 0
-882 162 0
-162 882 0
-883 178 0
-178 883 0
-884 193 0
-193 884 0
-885 207 0
-207 885 0
-886 220 0
-220 886 0
-887 232 0
-232 887 0
-888 243 0
-243 888 0
-889 253 0
-253 889 0
-890 262 0
-262 890 0
-891 270 0
-270 891 0
-892 22 0
-22 892 0
-893 283 0
-283 893 0
-894 277 0
-277 894 0
-895 292 0
-292 895 0
-896 288 0
-288 896 0
-897 323 0
-323 897 0
-898 295 0
-295 898 0
-899 299 0
-299 899 0
-900 298 0
-298 900 0
-901 46 0
-46 901 0
-902 68 0
-68 902 0
-903 89 0
-89 903 0
-904 109 0
-109 904 0
-905 128 0
-128 905 0
-906 146 0
-146 906 0
-907 163 0
-163 907 0
-908 179 0
-179 908 0
-909 194 0
-194 909 0
-910 208 0
-208 910 0
-911 221 0
-221 911 0
-912 233 0
-233 912 0
-913 244 0
-244 913 0
-914 254 0
-254 914 0
-915 263 0
-263 915 0
-916 271 0
-271 916 0
-917 23 0
-23 917 0
-918 284 0
-284 918 0
-919 278 0
-278 919 0
-920 293 0
-293 920 0
-921 289 0
-289 921 0
-922 298 0
-298 922 0
-923 296 0
-296 923 0
-924 300 0
-300 924 0
-925 324 0
-324 925 0
-926 47 0
-47 926 0
-927 69 0
-69 927 0
-928 90 0
-90 928 0
-929 110 0
-110 929 0
-930 129 0
-129 930 0
-931 147 0
-147 931 0
-932 164 0
-164 932 0
-933 180 0
-180 933 0
-934 195 0
-195 934 0
-935 209 0
-209 935 0
-936 222 0
-222 936 0
-937 234 0
-234 937 0
-938 245 0
-245 938 0
-939 255 0
-255 939 0
-940 264 0
-264 940 0
-941 272 0
-272 941 0
-942 24 0
-24 942 0
-943 285 0
-285 943 0
-944 279 0
-279 944 0
-945 294 0
-294 945 0
-946 290 0
-290 946 0
-947 299 0
-299 947 0
-948 297 0
-297 948 0
-949 325 0
-325 949 0
-950 300 0
-300 950 0
-326 -326 326 0
-326 -327 351 0
-326 -328 376 0
-326 -329 401 0
-326 -330 426 0
-326 -331 451 0
-326 -332 476 0
-326 -333 501 0
-326 -334 526 0
-326 -335 551 0
-326 -336 576 0
-326 -337 601 0
-326 -338 626 0
-326 -339 651 0
-326 -340 676 0
-326 -341 701 0
-326 -342 726 0
-326 -343 751 0
-326 -344 776 0
-326 -345 801 0
-326 -346 826 0
-326 -347 851 0
-326 -348 876 0
-326 -349 901 0
-326 -350 926 0
-327 -351 326 0
-327 -352 351 0
-327 -353 376 0
-327 -354 401 0
-327 -355 426 0
-327 -356 451 0
-327 -357 476 0
-327 -358 501 0
-327 -359 526 0
-327 -360 551 0
-327 -361 576 0
-327 -362 601 0
-327 -363 626 0
-327 -364 651 0
-327 -365 676 0
-327 -366 701 0
-327 -367 726 0
-327 -368 751 0
-327 -369 776 0
-327 -370 801 0
-327 -371 826 0
-327 -372 851 0
-327 -373 876 0
-327 -374 901 0
-327 -375 926 0
-328 -376 326 0
-328 -377 351 0
-328 -378 376 0
-328 -379 401 0
-328 -380 426 0
-328 -381 451 0
-328 -382 476 0
-328 -383 501 0
-328 -384 526 0
-328 -385 551 0
-328 -386 576 0
-328 -387 601 0
-328 -388 626 0
-328 -389 651 0
-328 -390 676 0
-328 -391 701 0
-328 -392 726 0
-328 -393 751 0
-328 -394 776 0
-328 -395 801 0
-328 -396 826 0
-328 -397 851 0
-328 -398 876 0
-328 -399 901 0
-328 -400 926 0
-329 -401 326 0
-329 -402 351 0
-329 -403 376 0
-329 -404 401 0
-329 -405 426 0
-329 -406 451 0
-329 -407 476 0
-329 -408 501 0
-329 -409 526 0
-329 -410 551 0
-329 -411 576 0
-329 -412 601 0
-329 -413 626 0
-329 -414 651 0
-329 -415 676 0
-329 -416 701 0
-329 -417 726 0
-329 -418 751 0
-329 -419 776 0
-329 -420 801 0
-329 -421 826 0
-329 -422 851 0
-329 -423 876 0
-329 -424 901 0
-329 -425 926 0
-330 -426 326 0
-330 -427 351 0
-330 -428 376 0
-330 -429 401 0
-330 -430 426 0
-330 -431 451 0
-330 -432 476 0
-330 -433 501 0
-330 -434 526 0
-330 -435 551 0
-330 -436 576 0
-330 -437 601 0
-330 -438 626 0
-330 -439 651 0
-330 -440 676 0
-330 -441 701 0
-330 -442 726 0
-330 -443 751 0
-330 -444 776 0
-330 -445 801 0
-330 -446 826 0
-330 -447 851 0
-330 -448 876 0
-330 -449 901 0
-330 -450 926 0
-331 -451 326 0
-331 -452 351 0
-331 -453 376 0
-331 -454 401 0
-331 -455 426 0
-331 -456 451 0
-331 -457 476 0
-331 -458 501 0
-331 -459 526 0
-331 -460 551 0
-331 -461 576 0
-331 -462 601 0
-331 -463 626 0
-331 -464 651 0
-331 -465 676 0
-331 -466 701 0
-331 -467 726 0
-331 -468 751 0
-331 -469 776 0
-331 -470 801 0
-331 -471 826 0
-331 -472 851 0
-331 -473 876 0
-331 -474 901 0
-331 -475 926 0
-332 -476 326 0
-332 -477 351 0
-332 -478 376 0
-332 -479 401 0
-332 -480 426 0
-332 -481 451 0
-332 -482 476 0
-332 -483 501 0
-332 -484 526 0
-332 -485 551 0
-332 -486 576 0
-332 -487 601 0
-332 -488 626 0
-332 -489 651 0
-332 -490 676 0
-332 -491 701 0
-332 -492 726 0
-332 -493 751 0
-332 -494 776 0
-332 -495 801 0
-332 -496 826 0
-332 -497 851 0
-332 -498 876 0
-332 -499 901 0
-332 -500 926 0
-333 -501 326 0
-333 -502 351 0
-333 -503 376 0
-333 -504 401 0
-333 -505 426 0
-333 -506 451 0
-333 -507 476 0
-333 -508 501 0
-333 -509 526 0
-333 -510 551 0
-333 -511 576 0
-333 -512 601 0
-333 -513 626 0
-333 -514 651 0
-333 -515 676 0
-333 -516 701 0
-333 -517 726 0
-333 -518 751 0
-333 -519 776 0
-333 -520 801 0
-333 -521 826 0
-333 -522 851 0
-333 -523 876 0
-333 -524 901 0
-333 -525 926 0
-334 -526 326 0
-334 -527 351 0
-334 -528 376 0
-334 -529 401 0
-334 -530 426 0
-334 -531 451 0
-334 -532 476 0
-334 -533 501 0
-334 -534 526 0
-334 -535 551 0
-334 -536 576 0
-334 -537 601 0
-334 -538 626 0
-334 -539 651 0
-334 -540 676 0
-334 -541 701 0
-334 -542 726 0
-334 -543 751 0
-334 -544 776 0
-334 -545 801 0
-334 -546 826 0
-334 -547 851 0
-334 -548 876 0
-334 -549 901 0
-334 -550 926 0
-335 -551 326 0
-335 -552 351 0
-335 -553 376 0
-335 -554 401 0
-335 -555 426 0
-335 -556 451 0
-335 -557 476 0
-335 -558 501 0
-335 -559 526 0
-335 -560 551 0
-335 -561 576 0
-335 -562 601 0
-335 -563 626 0
-335 -564 651 0
-335 -565 676 0
-335 -566 701 0
-335 -567 726 0
-335 -568 751 0
-335 -569 776 0
-335 -570 801 0
-335 -571 826 0
-335 -572 851 0
-335 -573 876 0
-335 -574 901 0
-335 -575 926 0
-336 -576 326 0
-336 -577 351 0
-336 -578 376 0
-336 -579 401 0
-336 -580 426 0
-336 -581 451 0
-336 -582 476 0
-336 -583 501 0
-336 -584 526 0
-336 -585 551 0
-336 -586 576 0
-336 -587 601 0
-336 -588 626 0
-336 -589 651 0
-336 -590 676 0
-336 -591 701 0
-336 -592 726 0
-336 -593 751 0
-336 -594 776 0
-336 -595 801 0
-336 -596 826 0
-336 -597 851 0
-336 -598 876 0
-336 -599 901 0
-336 -600 926 0
-337 -601 326 0
-337 -602 351 0
-337 -603 376 0
-337 -604 401 0
-337 -605 426 0
-337 -606 451 0
-337 -607 476 0
-337 -608 501 0
-337 -609 526 0
-337 -610 551 0
-337 -611 576 0
-337 -612 601 0
-337 -613 626 0
-337 -614 651 0
-337 -615 676 0
-337 -616 701 0
-337 -617 726 0
-337 -618 751 0
-337 -619 776 0
-337 -620 801 0
-337 -621 826 0
-337 -622 851 0
-337 -623 876 0
-337 -624 901 0
-337 -625 926 0
-338 -626 326 0
-338 -627 351 0
-338 -628 376 0
-338 -629 401 0
-338 -630 426 0
-338 -631 451 0
-338 -632 476 0
-338 -633 501 0
-338 -634 526 0
-338 -635 551 0
-338 -636 576 0
-338 -637 601 0
-338 -638 626 0
-338 -639 651 0
-338 -640 676 0
-338 -641 701 0
-338 -642 726 0
-338 -643 751 0
-338 -644 776 0
-338 -645 801 0
-338 -646 826 0
-338 -647 851 0
-338 -648 876 0
-338 -649 901 0
-338 -650 926 0
-339 -651 326 0
-339 -652 351 0
-339 -653 376 0
-339 -654 401 0
-339 -655 426 0
-339 -656 451 0
-339 -657 476 0
-339 -658 501 0
-339 -659 526 0
-339 -660 551 0
-339 -661 576 0
-339 -662 601 0
-339 -663 626 0
-339 -664 651 0
-339 -665 676 0
-339 -666 701 0
-339 -667 726 0
-339 -668 751 0
-339 -669 776 0
-339 -670 801 0
-339 -671 826 0
-339 -672 851 0
-339 -673 876 0
-339 -674 901 0
-339 -675 926 0
-340 -676 326 0
-340 -677 351 0
-340 -678 376 0
-340 -679 401 0
-340 -680 426 0
-340 -681 451 0
-340 -682 476 0
-340 -683 501 0
-340 -684 526 0
-340 -685 551 0
-340 -686 576 0
-340 -687 601 0
-340 -688 626 0
-340 -689 651 0
-340 -690 676 0
-340 -691 701 0
-340 -692 726 0
-340 -693 751 0
-340 -694 776 0
-340 -695 801 0
-340 -696 826 0
-340 -697 851 0
-340 -698 876 0
-340 -699 901 0
-340 -700 926 0
-341 -701 326 0
-341 -702 351 0
-341 -703 376 0
-341 -704 401 0
-341 -705 426 0
-341 -706 451 0
-341 -707 476 0
-341 -708 501 0
-341 -709 526 0
-341 -710 551 0
-341 -711 576 0
-341 -712 601 0
-341 -713 626 0
-341 -714 651 0
-341 -715 676 0
-341 -716 701 0
-341 -717 726 0
-341 -718 751 0
-341 -719 776 0
-341 -720 801 0
-341 -721 826 0
-341 -722 851 0
-341 -723 876 0
-341 -724 901 0
-341 -725 926 0
-342 -726 326 0
-342 -727 351 0
-342 -728 376 0
-342 -729 401 0
-342 -730 426 0
-342 -731 451 0
-342 -732 476 0
-342 -733 501 0
-342 -734 526 0
-342 -735 551 0
-342 -736 576 0
-342 -737 601 0
-342 -738 626 0
-342 -739 651 0
-342 -740 676 0
-342 -741 701 0
-342 -742 726 0
-342 -743 751 0
-342 -744 776 0
-342 -745 801 0
-342 -746 826 0
-342 -747 851 0
-342 -748 876 0
-342 -749 901 0
-342 -750 926 0
-343 -751 326 0
-343 -752 351 0
-343 -753 376 0
-343 -754 401 0
-343 -755 426 0
-343 -756 451 0
-343 -757 476 0
-343 -758 501 0
-343 -759 526 0
-343 -760 551 0
-343 -761 576 0
-343 -762 601 0
-343 -763 626 0
-343 -764 651 0
-343 -765 676 0
-343 -766 701 0
-343 -767 726 0
-343 -768 751 0
-343 -769 776 0
-343 -770 801 0
-343 -771 826 0
-343 -772 851 0
-343 -773 876 0
-343 -774 901 0
-343 -775 926 0
-344 -776 326 0
-344 -777 351 0
-344 -778 376 0
-344 -779 401 0
-344 -780 426 0
-344 -781 451 0
-344 -782 476 0
-344 -783 501 0
-344 -784 526 0
-344 -785 551 0
-344 -786 576 0
-344 -787 601 0
-344 -788 626 0
-344 -789 651 0
-344 -790 676 0
-344 -791 701 0
-344 -792 726 0
-344 -793 751 0
-344 -794 776 0
-344 -795 801 0
-344 -796 826 0
-344 -797 851 0
-344 -798 876 0
-344 -799 901 0
-344 -800 926 0
-345 -801 326 0
-345 -802 351 0
-345 -803 376 0
-345 -804 401 0
-345 -805 426 0
-345 -806 451 0
-345 -807 476 0
-345 -808 501 0
-345 -809 526 0
-345 -810 551 0
-345 -811 576 0
-345 -812 601 0
-345 -813 626 0
-345 -814 651 0
-345 -815 676 0
-345 -816 701 0
-345 -817 726 0
-345 -818 751 0
-345 -819 776 0
-345 -820 801 0
-345 -821 826 0
-345 -822 851 0
-345 -823 876 0
-345 -824 901 0
-345 -825 926 0
-346 -826 326 0
-346 -827 351 0
-346 -828 376 0
-346 -829 401 0
-346 -830 426 0
-346 -831 451 0
-346 -832 476 0
-346 -833 501 0
-346 -834 526 0
-346 -835 551 0
-346 -836 576 0
-346 -837 601 0
-346 -838 626 0
-346 -839 651 0
-346 -840 676 0
-346 -841 701 0
-346 -842 726 0
-346 -843 751 0
-346 -844 776 0
-346 -845 801 0
-346 -846 826 0
-346 -847 851 0
-346 -848 876 0
-346 -849 901 0
-346 -850 926 0
-347 -851 326 0
-347 -852 351 0
-347 -853 376 0
-347 -854 401 0
-347 -855 426 0
-347 -856 451 0
-347 -857 476 0
-347 -858 501 0
-347 -859 526 0
-347 -860 551 0
-347 -861 576 0
-347 -862 601 0
-347 -863 626 0
-347 -864 651 0
-347 -865 676 0
-347 -866 701 0
-347 -867 726 0
-347 -868 751 0
-347 -869 776 0
-347 -870 801 0
-347 -871 826 0
-347 -872 851 0
-347 -873 876 0
-347 -874 901 0
-347 -875 926 0
-348 -876 326 0
-348 -877 351 0
-348 -878 376 0
-348 -879 401 0
-348 -880 426 0
-348 -881 451 0
-348 -882 476 0
-348 -883 501 0
-348 -884 526 0
-348 -885 551 0
-348 -886 576 0
-348 -887 601 0
-348 -888 626 0
-348 -889 651 0
-348 -890 676 0
-348 -891 701 0
-348 -892 726 0
-348 -893 751 0
-348 -894 776 0
-348 -895 801 0
-348 -896 826 0
-348 -897 851 0
-348 -898 876 0
-348 -899 901 0
-348 -900 926 0
-349 -901 326 0
-349 -902 351 0
-349 -903 376 0
-349 -904 401 0
-349 -905 426 0
-349 -906 451 0
-349 -907 476 0
-349 -908 501 0
-349 -909 526 0
-349 -910 551 0
-349 -911 576 0
-349 -912 601 0
-349 -913 626 0
-349 -914 651 0
-349 -915 676 0
-349 -916 701 0
-349 -917 726 0
-349 -918 751 0
-349 -919 776 0
-349 -920 801 0
-349 -921 826 0
-349 -922 851 0
-349 -923 876 0
-349 -924 901 0
-349 -925 926 0
-350 -926 326 0
-350 -927 351 0
-350 -928 376 0
-350 -929 401 0
-350 -930 426 0
-350 -931 451 0
-350 -932 476 0
-350 -933 501 0
-350 -934 526 0
-350 -935 551 0
-350 -936 576 0
-350 -937 601 0
-350 -938 626 0
-350 -939 651 0
-350 -940 676 0
-350 -941 701 0
-350 -942 726 0
-350 -943 751 0
-350 -944 776 0
-350 -945 801 0
-350 -946 826 0
-350 -947 851 0
-350 -948 876 0
-350 -949 901 0
-350 -950 926 0
-351 -326 327 0
-351 -327 352 0
-351 -328 377 0
-351 -329 402 0
-351 -330 427 0
-351 -331 452 0
-351 -332 477 0
-351 -333 502 0
-351 -334 527 0
-351 -335 552 0
-351 -336 577 0
-351 -337 602 0
-351 -338 627 0
-351 -339 652 0
-351 -340 677 0
-351 -341 702 0
-351 -342 727 0
-351 -343 752 0
-351 -344 777 0
-351 -345 802 0
-351 -346 827 0
-351 -347 852 0
-351 -348 877 0
-351 -349 902 0
-351 -350 927 0
-352 -351 327 0
-352 -352 352 0
-352 -353 377 0
-352 -354 402 0
-352 -355 427 0
-352 -356 452 0
-352 -357 477 0
-352 -358 502 0
-352 -359 527 0
-352 -360 552 0
-352 -361 577 0
-352 -362 602 0
-352 -363 627 0
-352 -364 652 0
-352 -365 677 0
-352 -366 702 0
-352 -367 727 0
-352 -368 752 0
-352 -369 777 0
-352 -370 802 0
-352 -371 827 0
-352 -372 852 0
-352 -373 877 0
-352 -374 902 0
-352 -375 927 0
-353 -376 327 0
-353 -377 352 0
-353 -378 377 0
-353 -379 402 0
-353 -380 427 0
-353 -381 452 0
-353 -382 477 0
-353 -383 502 0
-353 -384 527 0
-353 -385 552 0
-353 -386 577 0
-353 -387 602 0
-353 -388 627 0
-353 -389 652 0
-353 -390 677 0
-353 -391 702 0
-353 -392 727 0
-353 -393 752 0
-353 -394 777 0
-353 -395 802 0
-353 -396 827 0
-353 -397 852 0
-353 -398 877 0
-353 -399 902 0
-353 -400 927 0
-354 -401 327 0
-354 -402 352 0
-354 -403 377 0
-354 -404 402 0
-354 -405 427 0
-354 -406 452 0
-354 -407 477 0
-354 -408 502 0
-354 -409 527 0
-354 -410 552 0
-354 -411 577 0
-354 -412 602 0
-354 -413 627 0
-354 -414 652 0
-354 -415 677 0
-354 -416 702 0
-354 -417 727 0
-354 -418 752 0
-354 -419 777 0
-354 -420 802 0
-354 -421 827 0
-354 -422 852 0
-354 -423 877 0
-354 -424 902 0
-354 -425 927 0
-355 -426 327 0
-355 -427 352 0
-355 -428 377 0
-355 -429 402 0
-355 -430 427 0
-355 -431 452 0
-355 -432 477 0
-355 -433 502 0
-355 -434 527 0
-355 -435 552 0
-355 -436 577 0
-355 -437 602 0
-355 -438 627 0
-355 -439 652 0
-355 -440 677 0
-355 -441 702 0
-355 -442 727 0
-355 -443 752 0
-355 -444 777 0
-355 -445 802 0
-355 -446 827 0
-355 -447 852 0
-355 -448 877 0
-355 -449 902 0
-355 -450 927 0
-356 -451 327 0
-356 -452 352 0
-356 -453 377 0
-356 -454 402 0
-356 -455 427 0
-356 -456 452 0
-356 -457 477 0
-356 -458 502 0
-356 -459 527 0
-356 -460 552 0
-356 -461 577 0
-356 -462 602 0
-356 -463 627 0
-356 -464 652 0
-356 -465 677 0
-356 -466 702 0
-356 -467 727 0
-356 -468 752 0
-356 -469 777 0
-356 -470 802 0
-356 -471 827 0
-356 -472 852 0
-356 -473 877 0
-356 -474 902 0
-356 -475 927 0
-357 -476 327 0
-357 -477 352 0
-357 -478 377 0
-357 -479 402 0
-357 -480 427 0
-357 -481 452 0
-357 -482 477 0
-357 -483 502 0
-357 -484 527 0
-357 -485 552 0
-357 -486 577 0
-357 -487 602 0
-357 -488 627 0
-357 -489 652 0
-357 -490 677 0
-357 -491 702 0
-357 -492 727 0
-357 -493 752 0
-357 -494 777 0
-357 -495 802 0
-357 -496 827 0
-357 -497 852 0
-357 -498 877 0
-357 -499 902 0
-357 -500 927 0
-358 -501 327 0
-358 -502 352 0
-358 -503 377 0
-358 -504 402 0
-358 -505 427 0
-358 -506 452 0
-358 -507 477 0
-358 -508 502 0
-358 -509 527 0
-358 -510 552 0
-358 -511 577 0
-358 -512 602 0
-358 -513 627 0
-358 -514 652 0
-358 -515 677 0
-358 -516 702 0
-358 -517 727 0
-358 -518 752 0
-358 -519 777 0
-358 -520 802 0
-358 -521 827 0
-358 -522 852 0
-358 -523 877 0
-358 -524 902 0
-358 -525 927 0
-359 -526 327 0
-359 -527 352 0
-359 -528 377 0
-359 -529 402 0
-359 -530 427 0
-359 -531 452 0
-359 -532 477 0
-359 -533 502 0
-359 -534 527 0
-359 -535 552 0
-359 -536 577 0
-359 -537 602 0
-359 -538 627 0
-359 -539 652 0
-359 -540 677 0
-359 -541 702 0
-359 -542 727 0
-359 -543 752 0
-359 -544 777 0
-359 -545 802 0
-359 -546 827 0
-359 -547 852 0
-359 -548 877 0
-359 -549 902 0
-359 -550 927 0
-360 -551 327 0
-360 -552 352 0
-360 -553 377 0
-360 -554 402 0
-360 -555 427 0
-360 -556 452 0
-360 -557 477 0
-360 -558 502 0
-360 -559 527 0
-360 -560 552 0
-360 -561 577 0
-360 -562 602 0
-360 -563 627 0
-360 -564 652 0
-360 -565 677 0
-360 -566 702 0
-360 -567 727 0
-360 -568 752 0
-360 -569 777 0
-360 -570 802 0
-360 -571 827 0
-360 -572 852 0
-360 -573 877 0
-360 -574 902 0
-360 -575 927 0
-361 -576 327 0
-361 -577 352 0
-361 -578 377 0
-361 -579 402 0
-361 -580 427 0
-361 -581 452 0
-361 -582 477 0
-361 -583 502 0
-361 -584 527 0
-361 -585 552 0
-361 -586 577 0
-361 -587 602 0
-361 -588 627 0
-361 -589 652 0
-361 -590 677 0
-361 -591 702 0
-361 -592 727 0
-361 -593 752 0
-361 -594 777 0
-361 -595 802 0
-361 -596 827 0
-361 -597 852 0
-361 -598 877 0
-361 -599 902 0
-361 -600 927 0
-362 -601 327 0
-362 -602 352 0
-362 -603 377 0
-362 -604 402 0
-362 -605 427 0
-362 -606 452 0
-362 -607 477 0
-362 -608 502 0
-362 -609 527 0
-362 -610 552 0
-362 -611 577 0
-362 -612 602 0
-362 -613 627 0
-362 -614 652 0
-362 -615 677 0
-362 -616 702 0
-362 -617 727 0
-362 -618 752 0
-362 -619 777 0
-362 -620 802 0
-362 -621 827 0
-362 -622 852 0
-362 -623 877 0
-362 -624 902 0
-362 -625 927 0
-363 -626 327 0
-363 -627 352 0
-363 -628 377 0
-363 -629 402 0
-363 -630 427 0
-363 -631 452 0
-363 -632 477 0
-363 -633 502 0
-363 -634 527 0
-363 -635 552 0
-363 -636 577 0
-363 -637 602 0
-363 -638 627 0
-363 -639 652 0
-363 -640 677 0
-363 -641 702 0
-363 -642 727 0
-363 -643 752 0
-363 -644 777 0
-363 -645 802 0
-363 -646 827 0
-363 -647 852 0
-363 -648 877 0
-363 -649 902 0
-363 -650 927 0
-364 -651 327 0
-364 -652 352 0
-364 -653 377 0
-364 -654 402 0
-364 -655 427 0
-364 -656 452 0
-364 -657 477 0
-364 -658 502 0
-364 -659 527 0
-364 -660 552 0
-364 -661 577 0
-364 -662 602 0
-364 -663 627 0
-364 -664 652 0
-364 -665 677 0
-364 -666 702 0
-364 -667 727 0
-364 -668 752 0
-364 -669 777 0
-364 -670 802 0
-364 -671 827 0
-364 -672 852 0
-364 -673 877 0
-364 -674 902 0
-364 -675 927 0
-365 -676 327 0
-365 -677 352 0
-365 -678 377 0
-365 -679 402 0
-365 -680 427 0
-365 -681 452 0
-365 -682 477 0
-365 -683 502 0
-365 -684 527 0
-365 -685 552 0
-365 -686 577 0
-365 -687 602 0
-365 -688 627 0
-365 -689 652 0
-365 -690 677 0
-365 -691 702 0
-365 -692 727 0
-365 -693 752 0
-365 -694 777 0
-365 -695 802 0
-365 -696 827 0
-365 -697 852 0
-365 -698 877 0
-365 -699 902 0
-365 -700 927 0
-366 -701 327 0
-366 -702 352 0
-366 -703 377 0
-366 -704 402 0
-366 -705 427 0
-366 -706 452 0
-366 -707 477 0
-366 -708 502 0
-366 -709 527 0
-366 -710 552 0
-366 -711 577 0
-366 -712 602 0
-366 -713 627 0
-366 -714 652 0
-366 -715 677 0
-366 -716 702 0
-366 -717 727 0
-366 -718 752 0
-366 -719 777 0
-366 -720 802 0
-366 -721 827 0
-366 -722 852 0
-366 -723 877 0
-366 -724 902 0
-366 -725 927 0
-367 -726 327 0
-367 -727 352 0
-367 -728 377 0
-367 -729 402 0
-367 -730 427 0
-367 -731 452 0
-367 -732 477 0
-367 -733 502 0
-367 -734 527 0
-367 -735 552 0
-367 -736 577 0
-367 -737 602 0
-367 -738 627 0
-367 -739 652 0
-367 -740 677 0
-367 -741 702 0
-367 -742 727 0
-367 -743 752 0
-367 -744 777 0
-367 -745 802 0
-367 -746 827 0
-367 -747 852 0
-367 -748 877 0
-367 -749 902 0
-367 -750 927 0
-368 -751 327 0
-368 -752 352 0
-368 -753 377 0
-368 -754 402 0
-368 -755 427 0
-368 -756 452 0
-368 -757 477 0
-368 -758 502 0
-368 -759 527 0
-368 -760 552 0
-368 -761 577 0
-368 -762 602 0
-368 -763 627 0
-368 -764 652 0
-368 -765 677 0
-368 -766 702 0
-368 -767 727 0
-368 -768 752 0
-368 -769 777 0
-368 -770 802 0
-368 -771 827 0
-368 -772 852 0
-368 -773 877 0
-368 -774 902 0
-368 -775 927 0
-369 -776 327 0
-369 -777 352 0
-369 -778 377 0
-369 -779 402 0
-369 -780 427 0
-369 -781 452 0
-369 -782 477 0
-369 -783 502 0
-369 -784 527 0
-369 -785 552 0
-369 -786 577 0
-369 -787 602 0
-369 -788 627 0
-369 -789 652 0
-369 -790 677 0
-369 -791 702 0
-369 -792 727 0
-369 -793 752 0
-369 -794 777 0
-369 -795 802 0
-369 -796 827 0
-369 -797 852 0
-369 -798 877 0
-369 -799 902 0
-369 -800 927 0
-370 -801 327 0
-370 -802 352 0
-370 -803 377 0
-370 -804 402 0
-370 -805 427 0
-370 -806 452 0
-370 -807 477 0
-370 -808 502 0
-370 -809 527 0
-370 -810 552 0
-370 -811 577 0
-370 -812 602 0
-370 -813 627 0
-370 -814 652 0
-370 -815 677 0
-370 -816 702 0
-370 -817 727 0
-370 -818 752 0
-370 -819 777 0
-370 -820 802 0
-370 -821 827 0
-370 -822 852 0
-370 -823 877 0
-370 -824 902 0
-370 -825 927 0
-371 -826 327 0
-371 -827 352 0
-371 -828 377 0
-371 -829 402 0
-371 -830 427 0
-371 -831 452 0
-371 -832 477 0
-371 -833 502 0
-371 -834 527 0
-371 -835 552 0
-371 -836 577 0
-371 -837 602 0
-371 -838 627 0
-371 -839 652 0
-371 -840 677 0
-371 -841 702 0
-371 -842 727 0
-371 -843 752 0
-371 -844 777 0
-371 -845 802 0
-371 -846 827 0
-371 -847 852 0
-371 -848 877 0
-371 -849 902 0
-371 -850 927 0
-372 -851 327 0
-372 -852 352 0
-372 -853 377 0
-372 -854 402 0
-372 -855 427 0
-372 -856 452 0
-372 -857 477 0
-372 -858 502 0
-372 -859 527 0
-372 -860 552 0
-372 -861 577 0
-372 -862 602 0
-372 -863 627 0
-372 -864 652 0
-372 -865 677 0
-372 -866 702 0
-372 -867 727 0
-372 -868 752 0
-372 -869 777 0
-372 -870 802 0
-372 -871 827 0
-372 -872 852 0
-372 -873 877 0
-372 -874 902 0
-372 -875 927 0
-373 -876 327 0
-373 -877 352 0
-373 -878 377 0
-373 -879 402 0
-373 -880 427 0
-373 -881 452 0
-373 -882 477 0
-373 -883 502 0
-373 -884 527 0
-373 -885 552 0
-373 -886 577 0
-373 -887 602 0
-373 -888 627 0
-373 -889 652 0
-373 -890 677 0
-373 -891 702 0
-373 -892 727 0
-373 -893 752 0
-373 -894 777 0
-373 -895 802 0
-373 -896 827 0
-373 -897 852 0
-373 -898 877 0
-373 -899 902 0
-373 -900 927 0
-374 -901 327 0
-374 -902 352 0
-374 -903 377 0
-374 -904 402 0
-374 -905 427 0
-374 -906 452 0
-374 -907 477 0
-374 -908 502 0
-374 -909 527 0
-374 -910 552 0
-374 -911 577 0
-374 -912 602 0
-374 -913 627 0
-374 -914 652 0
-374 -915 677 0
-374 -916 702 0
-374 -917 727 0
-374 -918 752 0
-374 -919 777 0
-374 -920 802 0
-374 -921 827 0
-374 -922 852 0
-374 -923 877 0
-374 -924 902 0
-374 -925 927 0
-375 -926 327 0
-375 -927 352 0
-375 -928 377 0
-375 -929 402 0
-375 -930 427 0
-375 -931 452 0
-375 -932 477 0
-375 -933 502 0
-375 -934 527 0
-375 -935 552 0
-375 -936 577 0
-375 -937 602 0
-375 -938 627 0
-375 -939 652 0
-375 -940 677 0
-375 -941 702 0
-375 -942 727 0
-375 -943 752 0
-375 -944 777 0
-375 -945 802 0
-375 -946 827 0
-375 -947 852 0
-375 -948 877 0
-375 -949 902 0
-375 -950 927 0
-376 -326 328 0
-376 -327 353 0
-376 -328 378 0
-376 -329 403 0
-376 -330 428 0
-376 -331 453 0
-376 -332 478 0
-376 -333 503 0
-376 -334 528 0
-376 -335 553 0
-376 -336 578 0
-376 -337 603 0
-376 -338 628 0
-376 -339 653 0
-376 -340 678 0
-376 -341 703 0
-376 -342 728 0
-376 -343 753 0
-376 -344 778 0
-376 -345 803 0
-376 -346 828 0
-376 -347 853 0
-376 -348 878 0
-376 -349 903 0
-376 -350 928 0
-377 -351 328 0
-377 -352 353 0
-377 -353 378 0
-377 -354 403 0
-377 -355 428 0
-377 -356 453 0
-377 -357 478 0
-377 -358 503 0
-377 -359 528 0
-377 -360 553 0
-377 -361 578 0
-377 -362 603 0
-377 -363 628 0
-377 -364 653 0
-377 -365 678 0
-377 -366 703 0
-377 -367 728 0
-377 -368 753 0
-377 -369 778 0
-377 -370 803 0
-377 -371 828 0
-377 -372 853 0
-377 -373 878 0
-377 -374 903 0
-377 -375 928 0
-378 -376 328 0
-378 -377 353 0
-378 -378 378 0
-378 -379 403 0
-378 -380 428 0
-378 -381 453 0
-378 -382 478 0
-378 -383 503 0
-378 -384 528 0
-378 -385 553 0
-378 -386 578 0
-378 -387 603 0
-378 -388 628 0
-378 -389 653 0
-378 -390 678 0
-378 -391 703 0
-378 -392 728 0
-378 -393 753 0
-378 -394 778 0
-378 -395 803 0
-378 -396 828 0
-378 -397 853 0
-378 -398 878 0
-378 -399 903 0
-378 -400 928 0
-379 -401 328 0
-379 -402 353 0
-379 -403 378 0
-379 -404 403 0
-379 -405 428 0
-379 -406 453 0
-379 -407 478 0
-379 -408 503 0
-379 -409 528 0
-379 -410 553 0
-379 -411 578 0
-379 -412 603 0
-379 -413 628 0
-379 -414 653 0
-379 -415 678 0
-379 -416 703 0
-379 -417 728 0
-379 -418 753 0
-379 -419 778 0
-379 -420 803 0
-379 -421 828 0
-379 -422 853 0
-379 -423 878 0
-379 -424 903 0
-379 -425 928 0
-380 -426 328 0
-380 -427 353 0
-380 -428 378 0
-380 -429 403 0
-380 -430 428 0
-380 -431 453 0
-380 -432 478 0
-380 -433 503 0
-380 -434 528 0
-380 -435 553 0
-380 -436 578 0
-380 -437 603 0
-380 -438 628 0
-380 -439 653 0
-380 -440 678 0
-380 -441 703 0
-380 -442 728 0
-380 -443 753 0
-380 -444 778 0
-380 -445 803 0
-380 -446 828 0
-380 -447 853 0
-380 -448 878 0
-380 -449 903 0
-380 -450 928 0
-381 -451 328 0
-381 -452 353 0
-381 -453 378 0
-381 -454 403 0
-381 -455 428 0
-381 -456 453 0
-381 -457 478 0
-381 -458 503 0
-381 -459 528 0
-381 -460 553 0
-381 -461 578 0
-381 -462 603 0
-381 -463 628 0
-381 -464 653 0
-381 -465 678 0
-381 -466 703 0
-381 -467 728 0
-381 -468 753 0
-381 -469 778 0
-381 -470 803 0
-381 -471 828 0
-381 -472 853 0
-381 -473 878 0
-381 -474 903 0
-381 -475 928 0
-382 -476 328 0
-382 -477 353 0
-382 -478 378 0
-382 -479 403 0
-382 -480 428 0
-382 -481 453 0
-382 -482 478 0
-382 -483 503 0
-382 -484 528 0
-382 -485 553 0
-382 -486 578 0
-382 -487 603 0
-382 -488 628 0
-382 -489 653 0
-382 -490 678 0
-382 -491 703 0
-382 -492 728 0
-382 -493 753 0
-382 -494 778 0
-382 -495 803 0
-382 -496 828 0
-382 -497 853 0
-382 -498 878 0
-382 -499 903 0
-382 -500 928 0
-383 -501 328 0
-383 -502 353 0
-383 -503 378 0
-383 -504 403 0
-383 -505 428 0
-383 -506 453 0
-383 -507 478 0
-383 -508 503 0
-383 -509 528 0
-383 -510 553 0
-383 -511 578 0
-383 -512 603 0
-383 -513 628 0
-383 -514 653 0
-383 -515 678 0
-383 -516 703 0
-383 -517 728 0
-383 -518 753 0
-383 -519 778 0
-383 -520 803 0
-383 -521 828 0
-383 -522 853 0
-383 -523 878 0
-383 -524 903 0
-383 -525 928 0
-384 -526 328 0
-384 -527 353 0
-384 -528 378 0
-384 -529 403 0
-384 -530 428 0
-384 -531 453 0
-384 -532 478 0
-384 -533 503 0
-384 -534 528 0
-384 -535 553 0
-384 -536 578 0
-384 -537 603 0
-384 -538 628 0
-384 -539 653 0
-384 -540 678 0
-384 -541 703 0
-384 -542 728 0
-384 -543 753 0
-384 -544 778 0
-384 -545 803 0
-384 -546 828 0
-384 -547 853 0
-384 -548 878 0
-384 -549 903 0
-384 -550 928 0
-385 -551 328 0
-385 -552 353 0
-385 -553 378 0
-385 -554 403 0
-385 -555 428 0
-385 -556 453 0
-385 -557 478 0
-385 -558 503 0
-385 -559 528 0
-385 -560 553 0
-385 -561 578 0
-385 -562 603 0
-385 -563 628 0
-385 -564 653 0
-385 -565 678 0
-385 -566 703 0
-385 -567 728 0
-385 -568 753 0
-385 -569 778 0
-385 -570 803 0
-385 -571 828 0
-385 -572 853 0
-385 -573 878 0
-385 -574 903 0
-385 -575 928 0
-386 -576 328 0
-386 -577 353 0
-386 -578 378 0
-386 -579 403 0
-386 -580 428 0
-386 -581 453 0
-386 -582 478 0
-386 -583 503 0
-386 -584 528 0
-386 -585 553 0
-386 -586 578 0
-386 -587 603 0
-386 -588 628 0
-386 -589 653 0
-386 -590 678 0
-386 -591 703 0
-386 -592 728 0
-386 -593 753 0
-386 -594 778 0
-386 -595 803 0
-386 -596 828 0
-386 -597 853 0
-386 -598 878 0
-386 -599 903 0
-386 -600 928 0
-387 -601 328 0
-387 -602 353 0
-387 -603 378 0
-387 -604 403 0
-387 -605 428 0
-387 -606 453 0
-387 -607 478 0
-387 -608 503 0
-387 -609 528 0
-387 -610 553 0
-387 -611 578 0
-387 -612 603 0
-387 -613 628 0
-387 -614 653 0
-387 -615 678 0
-387 -616 703 0
-387 -617 728 0
-387 -618 753 0
-387 -619 778 0
-387 -620 803 0
-387 -621 828 0
-387 -622 853 0
-387 -623 878 0
-387 -624 903 0
-387 -625 928 0
-388 -626 328 0
-388 -627 353 0
-388 -628 378 0
-388 -629 403 0
-388 -630 428 0
-388 -631 453 0
-388 -632 478 0
-388 -633 503 0
-388 -634 528 0
-388 -635 553 0
-388 -636 578 0
-388 -637 603 0
-388 -638 628 0
-388 -639 653 0
-388 -640 678 0
-388 -641 703 0
-388 -642 728 0
-388 -643 753 0
-388 -644 778 0
-388 -645 803 0
-388 -646 828 0
-388 -647 853 0
-388 -648 878 0
-388 -649 903 0
-388 -650 928 0
-389 -651 328 0
-389 -652 353 0
-389 -653 378 0
-389 -654 403 0
-389 -655 428 0
-389 -656 453 0
-389 -657 478 0
-389 -658 503 0
-389 -659 528 0
-389 -660 553 0
-389 -661 578 0
-389 -662 603 0
-389 -663 628 0
-389 -664 653 0
-389 -665 678 0
-389 -666 703 0
-389 -667 728 0
-389 -668 753 0
-389 -669 778 0
-389 -670 803 0
-389 -671 828 0
-389 -672 853 0
-389 -673 878 0
-389 -674 903 0
-389 -675 928 0
-390 -676 328 0
-390 -677 353 0
-390 -678 378 0
-390 -679 403 0
-390 -680 428 0
-390 -681 453 0
-390 -682 478 0
-390 -683 503 0
-390 -684 528 0
-390 -685 553 0
-390 -686 578 0
-390 -687 603 0
-390 -688 628 0
-390 -689 653 0
-390 -690 678 0
-390 -691 703 0
-390 -692 728 0
-390 -693 753 0
-390 -694 778 0
-390 -695 803 0
-390 -696 828 0
-390 -697 853 0
-390 -698 878 0
-390 -699 903 0
-390 -700 928 0
-391 -701 328 0
-391 -702 353 0
-391 -703 378 0
-391 -704 403 0
-391 -705 428 0
-391 -706 453 0
-391 -707 478 0
-391 -708 503 0
-391 -709 528 0
-391 -710 553 0
-391 -711 578 0
-391 -712 603 0
-391 -713 628 0
-391 -714 653 0
-391 -715 678 0
-391 -716 703 0
-391 -717 728 0
-391 -718 753 0
-391 -719 778 0
-391 -720 803 0
-391 -721 828 0
-391 -722 853 0
-391 -723 878 0
-391 -724 903 0
-391 -725 928 0
-392 -726 328 0
-392 -727 353 0
-392 -728 378 0
-392 -729 403 0
-392 -730 428 0
-392 -731 453 0
-392 -732 478 0
-392 -733 503 0
-392 -734 528 0
-392 -735 553 0
-392 -736 578 0
-392 -737 603 0
-392 -738 628 0
-392 -739 653 0
-392 -740 678 0
-392 -741 703 0
-392 -742 728 0
-392 -743 753 0
-392 -744 778 0
-392 -745 803 0
-392 -746 828 0
-392 -747 853 0
-392 -748 878 0
-392 -749 903 0
-392 -750 928 0
-393 -751 328 0
-393 -752 353 0
-393 -753 378 0
-393 -754 403 0
-393 -755 428 0
-393 -756 453 0
-393 -757 478 0
-393 -758 503 0
-393 -759 528 0
-393 -760 553 0
-393 -761 578 0
-393 -762 603 0
-393 -763 628 0
-393 -764 653 0
-393 -765 678 0
-393 -766 703 0
-393 -767 728 0
-393 -768 753 0
-393 -769 778 0
-393 -770 803 0
-393 -771 828 0
-393 -772 853 0
-393 -773 878 0
-393 -774 903 0
-393 -775 928 0
-394 -776 328 0
-394 -777 353 0
-394 -778 378 0
-394 -779 403 0
-394 -780 428 0
-394 -781 453 0
-394 -782 478 0
-394 -783 503 0
-394 -784 528 0
-394 -785 553 0
-394 -786 578 0
-394 -787 603 0
-394 -788 628 0
-394 -789 653 0
-394 -790 678 0
-394 -791 703 0
-394 -792 728 0
-394 -793 753 0
-394 -794 778 0
-394 -795 803 0
-394 -796 828 0
-394 -797 853 0
-394 -798 878 0
-394 -799 903 0
-394 -800 928 0
-395 -801 328 0
-395 -802 353 0
-395 -803 378 0
-395 -804 403 0
-395 -805 428 0
-395 -806 453 0
-395 -807 478 0
-395 -808 503 0
-395 -809 528 0
-395 -810 553 0
-395 -811 578 0
-395 -812 603 0
-395 -813 628 0
-395 -814 653 0
-395 -815 678 0
-395 -816 703 0
-395 -817 728 0
-395 -818 753 0
-395 -819 778 0
-395 -820 803 0
-395 -821 828 0
-395 -822 853 0
-395 -823 878 0
-395 -824 903 0
-395 -825 928 0
-396 -826 328 0
-396 -827 353 0
-396 -828 378 0
-396 -829 403 0
-396 -830 428 0
-396 -831 453 0
-396 -832 478 0
-396 -833 503 0
-396 -834 528 0
-396 -835 553 0
-396 -836 578 0
-396 -837 603 0
-396 -838 628 0
-396 -839 653 0
-396 -840 678 0
-396 -841 703 0
-396 -842 728 0
-396 -843 753 0
-396 -844 778 0
-396 -845 803 0
-396 -846 828 0
-396 -847 853 0
-396 -848 878 0
-396 -849 903 0
-396 -850 928 0
-397 -851 328 0
-397 -852 353 0
-397 -853 378 0
-397 -854 403 0
-397 -855 428 0
-397 -856 453 0
-397 -857 478 0
-397 -858 503 0
-397 -859 528 0
-397 -860 553 0
-397 -861 578 0
-397 -862 603 0
-397 -863 628 0
-397 -864 653 0
-397 -865 678 0
-397 -866 703 0
-397 -867 728 0
-397 -868 753 0
-397 -869 778 0
-397 -870 803 0
-397 -871 828 0
-397 -872 853 0
-397 -873 878 0
-397 -874 903 0
-397 -875 928 0
-398 -876 328 0
-398 -877 353 0
-398 -878 378 0
-398 -879 403 0
-398 -880 428 0
-398 -881 453 0
-398 -882 478 0
-398 -883 503 0
-398 -884 528 0
-398 -885 553 0
-398 -886 578 0
-398 -887 603 0
-398 -888 628 0
-398 -889 653 0
-398 -890 678 0
-398 -891 703 0
-398 -892 728 0
-398 -893 753 0
-398 -894 778 0
-398 -895 803 0
-398 -896 828 0
-398 -897 853 0
-398 -898 878 0
-398 -899 903 0
-398 -900 928 0
-399 -901 328 0
-399 -902 353 0
-399 -903 378 0
-399 -904 403 0
-399 -905 428 0
-399 -906 453 0
-399 -907 478 0
-399 -908 503 0
-399 -909 528 0
-399 -910 553 0
-399 -911 578 0
-399 -912 603 0
-399 -913 628 0
-399 -914 653 0
-399 -915 678 0
-399 -916 703 0
-399 -917 728 0
-399 -918 753 0
-399 -919 778 0
-399 -920 803 0
-399 -921 828 0
-399 -922 853 0
-399 -923 878 0
-399 -924 903 0
-399 -925 928 0
-400 -926 328 0
-400 -927 353 0
-400 -928 378 0
-400 -929 403 0
-400 -930 428 0
-400 -931 453 0
-400 -932 478 0
-400 -933 503 0
-400 -934 528 0
-400 -935 553 0
-400 -936 578 0
-400 -937 603 0
-400 -938 628 0
-400 -939 653 0
-400 -940 678 0
-400 -941 703 0
-400 -942 728 0
-400 -943 753 0
-400 -944 778 0
-400 -945 803 0
-400 -946 828 0
-400 -947 853 0
-400 -948 878 0
-400 -949 903 0
-400 -950 928 0
-401 -326 329 0
-401 -327 354 0
-401 -328 379 0
-401 -329 404 0
-401 -330 429 0
-401 -331 454 0
-401 -332 479 0
-401 -333 504 0
-401 -334 529 0
-401 -335 554 0
-401 -336 579 0
-401 -337 604 0
-401 -338 629 0
-401 -339 654 0
-401 -340 679 0
-401 -341 704 0
-401 -342 729 0
-401 -343 754 0
-401 -344 779 0
-401 -345 804 0
-401 -346 829 0
-401 -347 854 0
-401 -348 879 0
-401 -349 904 0
-401 -350 929 0
-402 -351 329 0
-402 -352 354 0
-402 -353 379 0
-402 -354 404 0
-402 -355 429 0
-402 -356 454 0
-402 -357 479 0
-402 -358 504 0
-402 -359 529 0
-402 -360 554 0
-402 -361 579 0
-402 -362 604 0
-402 -363 629 0
-402 -364 654 0
-402 -365 679 0
-402 -366 704 0
-402 -367 729 0
-402 -368 754 0
-402 -369 779 0
-402 -370 804 0
-402 -371 829 0
-402 -372 854 0
-402 -373 879 0
-402 -374 904 0
-402 -375 929 0
-403 -376 329 0
-403 -377 354 0
-403 -378 379 0
-403 -379 404 0
-403 -380 429 0
-403 -381 454 0
-403 -382 479 0
-403 -383 504 0
-403 -384 529 0
-403 -385 554 0
-403 -386 579 0
-403 -387 604 0
-403 -388 629 0
-403 -389 654 0
-403 -390 679 0
-403 -391 704 0
-403 -392 729 0
-403 -393 754 0
-403 -394 779 0
-403 -395 804 0
-403 -396 829 0
-403 -397 854 0
-403 -398 879 0
-403 -399 904 0
-403 -400 929 0
-404 -401 329 0
-404 -402 354 0
-404 -403 379 0
-404 -404 404 0
-404 -405 429 0
-404 -406 454 0
-404 -407 479 0
-404 -408 504 0
-404 -409 529 0
-404 -410 554 0
-404 -411 579 0
-404 -412 604 0
-404 -413 629 0
-404 -414 654 0
-404 -415 679 0
-404 -416 704 0
-404 -417 729 0
-404 -418 754 0
-404 -419 779 0
-404 -420 804 0
-404 -421 829 0
-404 -422 854 0
-404 -423 879 0
-404 -424 904 0
-404 -425 929 0
-405 -426 329 0
-405 -427 354 0
-405 -428 379 0
-405 -429 404 0
-405 -430 429 0
-405 -431 454 0
-405 -432 479 0
-405 -433 504 0
-405 -434 529 0
-405 -435 554 0
-405 -436 579 0
-405 -437 604 0
-405 -438 629 0
-405 -439 654 0
-405 -440 679 0
-405 -441 704 0
-405 -442 729 0
-405 -443 754 0
-405 -444 779 0
-405 -445 804 0
-405 -446 829 0
-405 -447 854 0
-405 -448 879 0
-405 -449 904 0
-405 -450 929 0
-406 -451 329 0
-406 -452 354 0
-406 -453 379 0
-406 -454 404 0
-406 -455 429 0
-406 -456 454 0
-406 -457 479 0
-406 -458 504 0
-406 -459 529 0
-406 -460 554 0
-406 -461 579 0
-406 -462 604 0
-406 -463 629 0
-406 -464 654 0
-406 -465 679 0
-406 -466 704 0
-406 -467 729 0
-406 -468 754 0
-406 -469 779 0
-406 -470 804 0
-406 -471 829 0
-406 -472 854 0
-406 -473 879 0
-406 -474 904 0
-406 -475 929 0
-407 -476 329 0
-407 -477 354 0
-407 -478 379 0
-407 -479 404 0
-407 -480 429 0
-407 -481 454 0
-407 -482 479 0
-407 -483 504 0
-407 -484 529 0
-407 -485 554 0
-407 -486 579 0
-407 -487 604 0
-407 -488 629 0
-407 -489 654 0
-407 -490 679 0
-407 -491 704 0
-407 -492 729 0
-407 -493 754 0
-407 -494 779 0
-407 -495 804 0
-407 -496 829 0
-407 -497 854 0
-407 -498 879 0
-407 -499 904 0
-407 -500 929 0
-408 -501 329 0
-408 -502 354 0
-408 -503 379 0
-408 -504 404 0
-408 -505 429 0
-408 -506 454 0
-408 -507 479 0
-408 -508 504 0
-408 -509 529 0
-408 -510 554 0
-408 -511 579 0
-408 -512 604 0
-408 -513 629 0
-408 -514 654 0
-408 -515 679 0
-408 -516 704 0
-408 -517 729 0
-408 -518 754 0
-408 -519 779 0
-408 -520 804 0
-408 -521 829 0
-408 -522 854 0
-408 -523 879 0
-408 -524 904 0
-408 -525 929 0
-409 -526 329 0
-409 -527 354 0
-409 -528 379 0
-409 -529 404 0
-409 -530 429 0
-409 -531 454 0
-409 -532 479 0
-409 -533 504 0
-409 -534 529 0
-409 -535 554 0
-409 -536 579 0
-409 -537 604 0
-409 -538 629 0
-409 -539 654 0
-409 -540 679 0
-409 -541 704 0
-409 -542 729 0
-409 -543 754 0
-409 -544 779 0
-409 -545 804 0
-409 -546 829 0
-409 -547 854 0
-409 -548 879 0
-409 -549 904 0
-409 -550 929 0
-410 -551 329 0
-410 -552 354 0
-410 -553 379 0
-410 -554 404 0
-410 -555 429 0
-410 -556 454 0
-410 -557 479 0
-410 -558 504 0
-410 -559 529 0
-410 -560 554 0
-410 -561 579 0
-410 -562 604 0
-410 -563 629 0
-410 -564 654 0
-410 -565 679 0
-410 -566 704 0
-410 -567 729 0
-410 -568 754 0
-410 -569 779 0
-410 -570 804 0
-410 -571 829 0
-410 -572 854 0
-410 -573 879 0
-410 -574 904 0
-410 -575 929 0
-411 -576 329 0
-411 -577 354 0
-411 -578 379 0
-411 -579 404 0
-411 -580 429 0
-411 -581 454 0
-411 -582 479 0
-411 -583 504 0
-411 -584 529 0
-411 -585 554 0
-411 -586 579 0
-411 -587 604 0
-411 -588 629 0
-411 -589 654 0
-411 -590 679 0
-411 -591 704 0
-411 -592 729 0
-411 -593 754 0
-411 -594 779 0
-411 -595 804 0
-411 -596 829 0
-411 -597 854 0
-411 -598 879 0
-411 -599 904 0
-411 -600 929 0
-412 -601 329 0
-412 -602 354 0
-412 -603 379 0
-412 -604 404 0
-412 -605 429 0
-412 -606 454 0
-412 -607 479 0
-412 -608 504 0
-412 -609 529 0
-412 -610 554 0
-412 -611 579 0
-412 -612 604 0
-412 -613 629 0
-412 -614 654 0
-412 -615 679 0
-412 -616 704 0
-412 -617 729 0
-412 -618 754 0
-412 -619 779 0
-412 -620 804 0
-412 -621 829 0
-412 -622 854 0
-412 -623 879 0
-412 -624 904 0
-412 -625 929 0
-413 -626 329 0
-413 -627 354 0
-413 -628 379 0
-413 -629 404 0
-413 -630 429 0
-413 -631 454 0
-413 -632 479 0
-413 -633 504 0
-413 -634 529 0
-413 -635 554 0
-413 -636 579 0
-413 -637 604 0
-413 -638 629 0
-413 -639 654 0
-413 -640 679 0
-413 -641 704 0
-413 -642 729 0
-413 -643 754 0
-413 -644 779 0
-413 -645 804 0
-413 -646 829 0
-413 -647 854 0
-413 -648 879 0
-413 -649 904 0
-413 -650 929 0
-414 -651 329 0
-414 -652 354 0
-414 -653 379 0
-414 -654 404 0
-414 -655 429 0
-414 -656 454 0
-414 -657 479 0
-414 -658 504 0
-414 -659 529 0
-414 -660 554 0
-414 -661 579 0
-414 -662 604 0
-414 -663 629 0
-414 -664 654 0
-414 -665 679 0
-414 -666 704 0
-414 -667 729 0
-414 -668 754 0
-414 -669 779 0
-414 -670 804 0
-414 -671 829 0
-414 -672 854 0
-414 -673 879 0
-414 -674 904 0
-414 -675 929 0
-415 -676 329 0
-415 -677 354 0
-415 -678 379 0
-415 -679 404 0
-415 -680 429 0
-415 -681 454 0
-415 -682 479 0
-415 -683 504 0
-415 -684 529 0
-415 -685 554 0
-415 -686 579 0
-415 -687 604 0
-415 -688 629 0
-415 -689 654 0
-415 -690 679 0
-415 -691 704 0
-415 -692 729 0
-415 -693 754 0
-415 -694 779 0
-415 -695 804 0
-415 -696 829 0
-415 -697 854 0
-415 -698 879 0
-415 -699 904 0
-415 -700 929 0
-416 -701 329 0
-416 -702 354 0
-416 -703 379 0
-416 -704 404 0
-416 -705 429 0
-416 -706 454 0
-416 -707 479 0
-416 -708 504 0
-416 -709 529 0
-416 -710 554 0
-416 -711 579 0
-416 -712 604 0
-416 -713 629 0
-416 -714 654 0
-416 -715 679 0
-416 -716 704 0
-416 -717 729 0
-416 -718 754 0
-416 -719 779 0
-416 -720 804 0
-416 -721 829 0
-416 -722 854 0
-416 -723 879 0
-416 -724 904 0
-416 -725 929 0
-417 -726 329 0
-417 -727 354 0
-417 -728 379 0
-417 -729 404 0
-417 -730 429 0
-417 -731 454 0
-417 -732 479 0
-417 -733 504 0
-417 -734 529 0
-417 -735 554 0
-417 -736 579 0
-417 -737 604 0
-417 -738 629 0
-417 -739 654 0
-417 -740 679 0
-417 -741 704 0
-417 -742 729 0
-417 -743 754 0
-417 -744 779 0
-417 -745 804 0
-417 -746 829 0
-417 -747 854 0
-417 -748 879 0
-417 -749 904 0
-417 -750 929 0
-418 -751 329 0
-418 -752 354 0
-418 -753 379 0
-418 -754 404 0
-418 -755 429 0
-418 -756 454 0
-418 -757 479 0
-418 -758 504 0
-418 -759 529 0
-418 -760 554 0
-418 -761 579 0
-418 -762 604 0
-418 -763 629 0
-418 -764 654 0
-418 -765 679 0
-418 -766 704 0
-418 -767 729 0
-418 -768 754 0
-418 -769 779 0
-418 -770 804 0
-418 -771 829 0
-418 -772 854 0
-418 -773 879 0
-418 -774 904 0
-418 -775 929 0
-419 -776 329 0
-419 -777 354 0
-419 -778 379 0
-419 -779 404 0
-419 -780 429 0
-419 -781 454 0
-419 -782 479 0
-419 -783 504 0
-419 -784 529 0
-419 -785 554 0
-419 -786 579 0
-419 -787 604 0
-419 -788 629 0
-419 -789 654 0
-419 -790 679 0
-419 -791 704 0
-419 -792 729 0
-419 -793 754 0
-419 -794 779 0
-419 -795 804 0
-419 -796 829 0
-419 -797 854 0
-419 -798 879 0
-419 -799 904 0
-419 -800 929 0
-420 -801 329 0
-420 -802 354 0
-420 -803 379 0
-420 -804 404 0
-420 -805 429 0
-420 -806 454 0
-420 -807 479 0
-420 -808 504 0
-420 -809 529 0
-420 -810 554 0
-420 -811 579 0
-420 -812 604 0
-420 -813 629 0
-420 -814 654 0
-420 -815 679 0
-420 -816 704 0
-420 -817 729 0
-420 -818 754 0
-420 -819 779 0
-420 -820 804 0
-420 -821 829 0
-420 -822 854 0
-420 -823 879 0
-420 -824 904 0
-420 -825 929 0
-421 -826 329 0
-421 -827 354 0
-421 -828 379 0
-421 -829 404 0
-421 -830 429 0
-421 -831 454 0
-421 -832 479 0
-421 -833 504 0
-421 -834 529 0
-421 -835 554 0
-421 -836 579 0
-421 -837 604 0
-421 -838 629 0
-421 -839 654 0
-421 -840 679 0
-421 -841 704 0
-421 -842 729 0
-421 -843 754 0
-421 -844 779 0
-421 -845 804 0
-421 -846 829 0
-421 -847 854 0
-421 -848 879 0
-421 -849 904 0
-421 -850 929 0
-422 -851 329 0
-422 -852 354 0
-422 -853 379 0
-422 -854 404 0
-422 -855 429 0
-422 -856 454 0
-422 -857 479 0
-422 -858 504 0
-422 -859 529 0
-422 -860 554 0
-422 -861 579 0
-422 -862 604 0
-422 -863 629 0
-422 -864 654 0
-422 -865 679 0
-422 -866 704 0
-422 -867 729 0
-422 -868 754 0
-422 -869 779 0
-422 -870 804 0
-422 -871 829 0
-422 -872 854 0
-422 -873 879 0
-422 -874 904 0
-422 -875 929 0
-423 -876 329 0
-423 -877 354 0
-423 -878 379 0
-423 -879 404 0
-423 -880 429 0
-423 -881 454 0
-423 -882 479 0
-423 -883 504 0
-423 -884 529 0
-423 -885 554 0
-423 -886 579 0
-423 -887 604 0
-423 -888 629 0
-423 -889 654 0
-423 -890 679 0
-423 -891 704 0
-423 -892 729 0
-423 -893 754 0
-423 -894 779 0
-423 -895 804 0
-423 -896 829 0
-423 -897 854 0
-423 -898 879 0
-423 -899 904 0
-423 -900 929 0
-424 -901 329 0
-424 -902 354 0
-424 -903 379 0
-424 -904 404 0
-424 -905 429 0
-424 -906 454 0
-424 -907 479 0
-424 -908 504 0
-424 -909 529 0
-424 -910 554 0
-424 -911 579 0
-424 -912 604 0
-424 -913 629 0
-424 -914 654 0
-424 -915 679 0
-424 -916 704 0
-424 -917 729 0
-424 -918 754 0
-424 -919 779 0
-424 -920 804 0
-424 -921 829 0
-424 -922 854 0
-424 -923 879 0
-424 -924 904 0
-424 -925 929 0
-425 -926 329 0
-425 -927 354 0
-425 -928 379 0
-425 -929 404 0
-425 -930 429 0
-425 -931 454 0
-425 -932 479 0
-425 -933 504 0
-425 -934 529 0
-425 -935 554 0
-425 -936 579 0
-425 -937 604 0
-425 -938 629 0
-425 -939 654 0
-425 -940 679 0
-425 -941 704 0
-425 -942 729 0
-425 -943 754 0
-425 -944 779 0
-425 -945 804 0
-425 -946 829 0
-425 -947 854 0
-425 -948 879 0
-425 -949 904 0
-425 -950 929 0
-426 -326 330 0
-426 -327 355 0
-426 -328 380 0
-426 -329 405 0
-426 -330 430 0
-426 -331 455 0
-426 -332 480 0
-426 -333 505 0
-426 -334 530 0
-426 -335 555 0
-426 -336 580 0
-426 -337 605 0
-426 -338 630 0
-426 -339 655 0
-426 -340 680 0
-426 -341 705 0
-426 -342 730 0
-426 -343 755 0
-426 -344 780 0
-426 -345 805 0
-426 -346 830 0
-426 -347 855 0
-426 -348 880 0
-426 -349 905 0
-426 -350 930 0
-427 -351 330 0
-427 -352 355 0
-427 -353 380 0
-427 -354 405 0
-427 -355 430 0
-427 -356 455 0
-427 -357 480 0
-427 -358 505 0
-427 -359 530 0
-427 -360 555 0
-427 -361 580 0
-427 -362 605 0
-427 -363 630 0
-427 -364 655 0
-427 -365 680 0
-427 -366 705 0
-427 -367 730 0
-427 -368 755 0
-427 -369 780 0
-427 -370 805 0
-427 -371 830 0
-427 -372 855 0
-427 -373 880 0
-427 -374 905 0
-427 -375 930 0
-428 -376 330 0
-428 -377 355 0
-428 -378 380 0
-428 -379 405 0
-428 -380 430 0
-428 -381 455 0
-428 -382 480 0
-428 -383 505 0
-428 -384 530 0
-428 -385 555 0
-428 -386 580 0
-428 -387 605 0
-428 -388 630 0
-428 -389 655 0
-428 -390 680 0
-428 -391 705 0
-428 -392 730 0
-428 -393 755 0
-428 -394 780 0
-428 -395 805 0
-428 -396 830 0
-428 -397 855 0
-428 -398 880 0
-428 -399 905 0
-428 -400 930 0
-429 -401 330 0
-429 -402 355 0
-429 -403 380 0
-429 -404 405 0
-429 -405 430 0
-429 -406 455 0
-429 -407 480 0
-429 -408 505 0
-429 -409 530 0
-429 -410 555 0
-429 -411 580 0
-429 -412 605 0
-429 -413 630 0
-429 -414 655 0
-429 -415 680 0
-429 -416 705 0
-429 -417 730 0
-429 -418 755 0
-429 -419 780 0
-429 -420 805 0
-429 -421 830 0
-429 -422 855 0
-429 -423 880 0
-429 -424 905 0
-429 -425 930 0
-430 -426 330 0
-430 -427 355 0
-430 -428 380 0
-430 -429 405 0
-430 -430 430 0
-430 -431 455 0
-430 -432 480 0
-430 -433 505 0
-430 -434 530 0
-430 -435 555 0
-430 -436 580 0
-430 -437 605 0
-430 -438 630 0
-430 -439 655 0
-430 -440 680 0
-430 -441 705 0
-430 -442 730 0
-430 -443 755 0
-430 -444 780 0
-430 -445 805 0
-430 -446 830 0
-430 -447 855 0
-430 -448 880 0
-430 -449 905 0
-430 -450 930 0
-431 -451 330 0
-431 -452 355 0
-431 -453 380 0
-431 -454 405 0
-431 -455 430 0
-431 -456 455 0
-431 -457 480 0
-431 -458 505 0
-431 -459 530 0
-431 -460 555 0
-431 -461 580 0
-431 -462 605 0
-431 -463 630 0
-431 -464 655 0
-431 -465 680 0
-431 -466 705 0
-431 -467 730 0
-431 -468 755 0
-431 -469 780 0
-431 -470 805 0
-431 -471 830 0
-431 -472 855 0
-431 -473 880 0
-431 -474 905 0
-431 -475 930 0
-432 -476 330 0
-432 -477 355 0
-432 -478 380 0
-432 -479 405 0
-432 -480 430 0
-432 -481 455 0
-432 -482 480 0
-432 -483 505 0
-432 -484 530 0
-432 -485 555 0
-432 -486 580 0
-432 -487 605 0
-432 -488 630 0
-432 -489 655 0
-432 -490 680 0
-432 -491 705 0
-432 -492 730 0
-432 -493 755 0
-432 -494 780 0
-432 -495 805 0
-432 -496 830 0
-432 -497 855 0
-432 -498 880 0
-432 -499 905 0
-432 -500 930 0
-433 -501 330 0
-433 -502 355 0
-433 -503 380 0
-433 -504 405 0
-433 -505 430 0
-433 -506 455 0
-433 -507 480 0
-433 -508 505 0
-433 -509 530 0
-433 -510 555 0
-433 -511 580 0
-433 -512 605 0
-433 -513 630 0
-433 -514 655 0
-433 -515 680 0
-433 -516 705 0
-433 -517 730 0
-433 -518 755 0
-433 -519 780 0
-433 -520 805 0
-433 -521 830 0
-433 -522 855 0
-433 -523 880 0
-433 -524 905 0
-433 -525 930 0
-434 -526 330 0
-434 -527 355 0
-434 -528 380 0
-434 -529 405 0
-434 -530 430 0
-434 -531 455 0
-434 -532 480 0
-434 -533 505 0
-434 -534 530 0
-434 -535 555 0
-434 -536 580 0
-434 -537 605 0
-434 -538 630 0
-434 -539 655 0
-434 -540 680 0
-434 -541 705 0
-434 -542 730 0
-434 -543 755 0
-434 -544 780 0
-434 -545 805 0
-434 -546 830 0
-434 -547 855 0
-434 -548 880 0
-434 -549 905 0
-434 -550 930 0
-435 -551 330 0
-435 -552 355 0
-435 -553 380 0
-435 -554 405 0
-435 -555 430 0
-435 -556 455 0
-435 -557 480 0
-435 -558 505 0
-435 -559 530 0
-435 -560 555 0
-435 -561 580 0
-435 -562 605 0
-435 -563 630 0
-435 -564 655 0
-435 -565 680 0
-435 -566 705 0
-435 -567 730 0
-435 -568 755 0
-435 -569 780 0
-435 -570 805 0
-435 -571 830 0
-435 -572 855 0
-435 -573 880 0
-435 -574 905 0
-435 -575 930 0
-436 -576 330 0
-436 -577 355 0
-436 -578 380 0
-436 -579 405 0
-436 -580 430 0
-436 -581 455 0
-436 -582 480 0
-436 -583 505 0
-436 -584 530 0
-436 -585 555 0
-436 -586 580 0
-436 -587 605 0
-436 -588 630 0
-436 -589 655 0
-436 -590 680 0
-436 -591 705 0
-436 -592 730 0
-436 -593 755 0
-436 -594 780 0
-436 -595 805 0
-436 -596 830 0
-436 -597 855 0
-436 -598 880 0
-436 -599 905 0
-436 -600 930 0
-437 -601 330 0
-437 -602 355 0
-437 -603 380 0
-437 -604 405 0
-437 -605 430 0
-437 -606 455 0
-437 -607 480 0
-437 -608 505 0
-437 -609 530 0
-437 -610 555 0
-437 -611 580 0
-437 -612 605 0
-437 -613 630 0
-437 -614 655 0
-437 -615 680 0
-437 -616 705 0
-437 -617 730 0
-437 -618 755 0
-437 -619 780 0
-437 -620 805 0
-437 -621 830 0
-437 -622 855 0
-437 -623 880 0
-437 -624 905 0
-437 -625 930 0
-438 -626 330 0
-438 -627 355 0
-438 -628 380 0
-438 -629 405 0
-438 -630 430 0
-438 -631 455 0
-438 -632 480 0
-438 -633 505 0
-438 -634 530 0
-438 -635 555 0
-438 -636 580 0
-438 -637 605 0
-438 -638 630 0
-438 -639 655 0
-438 -640 680 0
-438 -641 705 0
-438 -642 730 0
-438 -643 755 0
-438 -644 780 0
-438 -645 805 0
-438 -646 830 0
-438 -647 855 0
-438 -648 880 0
-438 -649 905 0
-438 -650 930 0
-439 -651 330 0
-439 -652 355 0
-439 -653 380 0
-439 -654 405 0
-439 -655 430 0
-439 -656 455 0
-439 -657 480 0
-439 -658 505 0
-439 -659 530 0
-439 -660 555 0
-439 -661 580 0
-439 -662 605 0
-439 -663 630 0
-439 -664 655 0
-439 -665 680 0
-439 -666 705 0
-439 -667 730 0
-439 -668 755 0
-439 -669 780 0
-439 -670 805 0
-439 -671 830 0
-439 -672 855 0
-439 -673 880 0
-439 -674 905 0
-439 -675 930 0
-440 -676 330 0
-440 -677 355 0
-440 -678 380 0
-440 -679 405 0
-440 -680 430 0
-440 -681 455 0
-440 -682 480 0
-440 -683 505 0
-440 -684 530 0
-440 -685 555 0
-440 -686 580 0
-440 -687 605 0
-440 -688 630 0
-440 -689 655 0
-440 -690 680 0
-440 -691 705 0
-440 -692 730 0
-440 -693 755 0
-440 -694 780 0
-440 -695 805 0
-440 -696 830 0
-440 -697 855 0
-440 -698 880 0
-440 -699 905 0
-440 -700 930 0
-441 -701 330 0
-441 -702 355 0
-441 -703 380 0
-441 -704 405 0
-441 -705 430 0
-441 -706 455 0
-441 -707 480 0
-441 -708 505 0
-441 -709 530 0
-441 -710 555 0
-441 -711 580 0
-441 -712 605 0
-441 -713 630 0
-441 -714 655 0
-441 -715 680 0
-441 -716 705 0
-441 -717 730 0
-441 -718 755 0
-441 -719 780 0
-441 -720 805 0
-441 -721 830 0
-441 -722 855 0
-441 -723 880 0
-441 -724 905 0
-441 -725 930 0
-442 -726 330 0
-442 -727 355 0
-442 -728 380 0
-442 -729 405 0
-442 -730 430 0
-442 -731 455 0
-442 -732 480 0
-442 -733 505 0
-442 -734 530 0
-442 -735 555 0
-442 -736 580 0
-442 -737 605 0
-442 -738 630 0
-442 -739 655 0
-442 -740 680 0
-442 -741 705 0
-442 -742 730 0
-442 -743 755 0
-442 -744 780 0
-442 -745 805 0
-442 -746 830 0
-442 -747 855 0
-442 -748 880 0
-442 -749 905 0
-442 -750 930 0
-443 -751 330 0
-443 -752 355 0
-443 -753 380 0
-443 -754 405 0
-443 -755 430 0
-443 -756 455 0
-443 -757 480 0
-443 -758 505 0
-443 -759 530 0
-443 -760 555 0
-443 -761 580 0
-443 -762 605 0
-443 -763 630 0
-443 -764 655 0
-443 -765 680 0
-443 -766 705 0
-443 -767 730 0
-443 -768 755 0
-443 -769 780 0
-443 -770 805 0
-443 -771 830 0
-443 -772 855 0
-443 -773 880 0
-443 -774 905 0
-443 -775 930 0
-444 -776 330 0
-444 -777 355 0
-444 -778 380 0
-444 -779 405 0
-444 -780 430 0
-444 -781 455 0
-444 -782 480 0
-444 -783 505 0
-444 -784 530 0
-444 -785 555 0
-444 -786 580 0
-444 -787 605 0
-444 -788 630 0
-444 -789 655 0
-444 -790 680 0
-444 -791 705 0
-444 -792 730 0
-444 -793 755 0
-444 -794 780 0
-444 -795 805 0
-444 -796 830 0
-444 -797 855 0
-444 -798 880 0
-444 -799 905 0
-444 -800 930 0
-445 -801 330 0
-445 -802 355 0
-445 -803 380 0
-445 -804 405 0
-445 -805 430 0
-445 -806 455 0
-445 -807 480 0
-445 -808 505 0
-445 -809 530 0
-445 -810 555 0
-445 -811 580 0
-445 -812 605 0
-445 -813 630 0
-445 -814 655 0
-445 -815 680 0
-445 -816 705 0
-445 -817 730 0
-445 -818 755 0
-445 -819 780 0
-445 -820 805 0
-445 -821 830 0
-445 -822 855 0
-445 -823 880 0
-445 -824 905 0
-445 -825 930 0
-446 -826 330 0
-446 -827 355 0
-446 -828 380 0
-446 -829 405 0
-446 -830 430 0
-446 -831 455 0
-446 -832 480 0
-446 -833 505 0
-446 -834 530 0
-446 -835 555 0
-446 -836 580 0
-446 -837 605 0
-446 -838 630 0
-446 -839 655 0
-446 -840 680 0
-446 -841 705 0
-446 -842 730 0
-446 -843 755 0
-446 -844 780 0
-446 -845 805 0
-446 -846 830 0
-446 -847 855 0
-446 -848 880 0
-446 -849 905 0
-446 -850 930 0
-447 -851 330 0
-447 -852 355 0
-447 -853 380 0
-447 -854 405 0
-447 -855 430 0
-447 -856 455 0
-447 -857 480 0
-447 -858 505 0
-447 -859 530 0
-447 -860 555 0
-447 -861 580 0
-447 -862 605 0
-447 -863 630 0
-447 -864 655 0
-447 -865 680 0
-447 -866 705 0
-447 -867 730 0
-447 -868 755 0
-447 -869 780 0
-447 -870 805 0
-447 -871 830 0
-447 -872 855 0
-447 -873 880 0
-447 -874 905 0
-447 -875 930 0
-448 -876 330 0
-448 -877 355 0
-448 -878 380 0
-448 -879 405 0
-448 -880 430 0
-448 -881 455 0
-448 -882 480 0
-448 -883 505 0
-448 -884 530 0
-448 -885 555 0
-448 -886 580 0
-448 -887 605 0
-448 -888 630 0
-448 -889 655 0
-448 -890 680 0
-448 -891 705 0
-448 -892 730 0
-448 -893 755 0
-448 -894 780 0
-448 -895 805 0
-448 -896 830 0
-448 -897 855 0
-448 -898 880 0
-448 -899 905 0
-448 -900 930 0
-449 -901 330 0
-449 -902 355 0
-449 -903 380 0
-449 -904 405 0
-449 -905 430 0
-449 -906 455 0
-449 -907 480 0
-449 -908 505 0
-449 -909 530 0
-449 -910 555 0
-449 -911 580 0
-449 -912 605 0
-449 -913 630 0
-449 -914 655 0
-449 -915 680 0
-449 -916 705 0
-449 -917 730 0
-449 -918 755 0
-449 -919 780 0
-449 -920 805 0
-449 -921 830 0
-449 -922 855 0
-449 -923 880 0
-449 -924 905 0
-449 -925 930 0
-450 -926 330 0
-450 -927 355 0
-450 -928 380 0
-450 -929 405 0
-450 -930 430 0
-450 -931 455 0
-450 -932 480 0
-450 -933 505 0
-450 -934 530 0
-450 -935 555 0
-450 -936 580 0
-450 -937 605 0
-450 -938 630 0
-450 -939 655 0
-450 -940 680 0
-450 -941 705 0
-450 -942 730 0
-450 -943 755 0
-450 -944 780 0
-450 -945 805 0
-450 -946 830 0
-450 -947 855 0
-450 -948 880 0
-450 -949 905 0
-450 -950 930 0
-451 -326 331 0
-451 -327 356 0
-451 -328 381 0
-451 -329 406 0
-451 -330 431 0
-451 -331 456 0
-451 -332 481 0
-451 -333 506 0
-451 -334 531 0
-451 -335 556 0
-451 -336 581 0
-451 -337 606 0
-451 -338 631 0
-451 -339 656 0
-451 -340 681 0
-451 -341 706 0
-451 -342 731 0
-451 -343 756 0
-451 -344 781 0
-451 -345 806 0
-451 -346 831 0
-451 -347 856 0
-451 -348 881 0
-451 -349 906 0
-451 -350 931 0
-452 -351 331 0
-452 -352 356 0
-452 -353 381 0
-452 -354 406 0
-452 -355 431 0
-452 -356 456 0
-452 -357 481 0
-452 -358 506 0
-452 -359 531 0
-452 -360 556 0
-452 -361 581 0
-452 -362 606 0
-452 -363 631 0
-452 -364 656 0
-452 -365 681 0
-452 -366 706 0
-452 -367 731 0
-452 -368 756 0
-452 -369 781 0
-452 -370 806 0
-452 -371 831 0
-452 -372 856 0
-452 -373 881 0
-452 -374 906 0
-452 -375 931 0
-453 -376 331 0
-453 -377 356 0
-453 -378 381 0
-453 -379 406 0
-453 -380 431 0
-453 -381 456 0
-453 -382 481 0
-453 -383 506 0
-453 -384 531 0
-453 -385 556 0
-453 -386 581 0
-453 -387 606 0
-453 -388 631 0
-453 -389 656 0
-453 -390 681 0
-453 -391 706 0
-453 -392 731 0
-453 -393 756 0
-453 -394 781 0
-453 -395 806 0
-453 -396 831 0
-453 -397 856 0
-453 -398 881 0
-453 -399 906 0
-453 -400 931 0
-454 -401 331 0
-454 -402 356 0
-454 -403 381 0
-454 -404 406 0
-454 -405 431 0
-454 -406 456 0
-454 -407 481 0
-454 -408 506 0
-454 -409 531 0
-454 -410 556 0
-454 -411 581 0
-454 -412 606 0
-454 -413 631 0
-454 -414 656 0
-454 -415 681 0
-454 -416 706 0
-454 -417 731 0
-454 -418 756 0
-454 -419 781 0
-454 -420 806 0
-454 -421 831 0
-454 -422 856 0
-454 -423 881 0
-454 -424 906 0
-454 -425 931 0
-455 -426 331 0
-455 -427 356 0
-455 -428 381 0
-455 -429 406 0
-455 -430 431 0
-455 -431 456 0
-455 -432 481 0
-455 -433 506 0
-455 -434 531 0
-455 -435 556 0
-455 -436 581 0
-455 -437 606 0
-455 -438 631 0
-455 -439 656 0
-455 -440 681 0
-455 -441 706 0
-455 -442 731 0
-455 -443 756 0
-455 -444 781 0
-455 -445 806 0
-455 -446 831 0
-455 -447 856 0
-455 -448 881 0
-455 -449 906 0
-455 -450 931 0
-456 -451 331 0
-456 -452 356 0
-456 -453 381 0
-456 -454 406 0
-456 -455 431 0
-456 -456 456 0
-456 -457 481 0
-456 -458 506 0
-456 -459 531 0
-456 -460 556 0
-456 -461 581 0
-456 -462 606 0
-456 -463 631 0
-456 -464 656 0
-456 -465 681 0
-456 -466 706 0
-456 -467 731 0
-456 -468 756 0
-456 -469 781 0
-456 -470 806 0
-456 -471 831 0
-456 -472 856 0
-456 -473 881 0
-456 -474 906 0
-456 -475 931 0
-457 -476 331 0
-457 -477 356 0
-457 -478 381 0
-457 -479 406 0
-457 -480 431 0
-457 -481 456 0
-457 -482 481 0
-457 -483 506 0
-457 -484 531 0
-457 -485 556 0
-457 -486 581 0
-457 -487 606 0
-457 -488 631 0
-457 -489 656 0
-457 -490 681 0
-457 -491 706 0
-457 -492 731 0
-457 -493 756 0
-457 -494 781 0
-457 -495 806 0
-457 -496 831 0
-457 -497 856 0
-457 -498 881 0
-457 -499 906 0
-457 -500 931 0
-458 -501 331 0
-458 -502 356 0
-458 -503 381 0
-458 -504 406 0
-458 -505 431 0
-458 -506 456 0
-458 -507 481 0
-458 -508 506 0
-458 -509 531 0
-458 -510 556 0
-458 -511 581 0
-458 -512 606 0
-458 -513 631 0
-458 -514 656 0
-458 -515 681 0
-458 -516 706 0
-458 -517 731 0
-458 -518 756 0
-458 -519 781 0
-458 -520 806 0
-458 -521 831 0
-458 -522 856 0
-458 -523 881 0
-458 -524 906 0
-458 -525 931 0
-459 -526 331 0
-459 -527 356 0
-459 -528 381 0
-459 -529 406 0
-459 -530 431 0
-459 -531 456 0
-459 -532 481 0
-459 -533 506 0
-459 -534 531 0
-459 -535 556 0
-459 -536 581 0
-459 -537 606 0
-459 -538 631 0
-459 -539 656 0
-459 -540 681 0
-459 -541 706 0
-459 -542 731 0
-459 -543 756 0
-459 -544 781 0
-459 -545 806 0
-459 -546 831 0
-459 -547 856 0
-459 -548 881 0
-459 -549 906 0
-459 -550 931 0
-460 -551 331 0
-460 -552 356 0
-460 -553 381 0
-460 -554 406 0
-460 -555 431 0
-460 -556 456 0
-460 -557 481 0
-460 -558 506 0
-460 -559 531 0
-460 -560 556 0
-460 -561 581 0
-460 -562 606 0
-460 -563 631 0
-460 -564 656 0
-460 -565 681 0
-460 -566 706 0
-460 -567 731 0
-460 -568 756 0
-460 -569 781 0
-460 -570 806 0
-460 -571 831 0
-460 -572 856 0
-460 -573 881 0
-460 -574 906 0
-460 -575 931 0
-461 -576 331 0
-461 -577 356 0
-461 -578 381 0
-461 -579 406 0
-461 -580 431 0
-461 -581 456 0
-461 -582 481 0
-461 -583 506 0
-461 -584 531 0
-461 -585 556 0
-461 -586 581 0
-461 -587 606 0
-461 -588 631 0
-461 -589 656 0
-461 -590 681 0
-461 -591 706 0
-461 -592 731 0
-461 -593 756 0
-461 -594 781 0
-461 -595 806 0
-461 -596 831 0
-461 -597 856 0
-461 -598 881 0
-461 -599 906 0
-461 -600 931 0
-462 -601 331 0
-462 -602 356 0
-462 -603 381 0
-462 -604 406 0
-462 -605 431 0
-462 -606 456 0
-462 -607 481 0
-462 -608 506 0
-462 -609 531 0
-462 -610 556 0
-462 -611 581 0
-462 -612 606 0
-462 -613 631 0
-462 -614 656 0
-462 -615 681 0
-462 -616 706 0
-462 -617 731 0
-462 -618 756 0
-462 -619 781 0
-462 -620 806 0
-462 -621 831 0
-462 -622 856 0
-462 -623 881 0
-462 -624 906 0
-462 -625 931 0
-463 -626 331 0
-463 -627 356 0
-463 -628 381 0
-463 -629 406 0
-463 -630 431 0
-463 -631 456 0
-463 -632 481 0
-463 -633 506 0
-463 -634 531 0
-463 -635 556 0
-463 -636 581 0
-463 -637 606 0
-463 -638 631 0
-463 -639 656 0
-463 -640 681 0
-463 -641 706 0
-463 -642 731 0
-463 -643 756 0
-463 -644 781 0
-463 -645 806 0
-463 -646 831 0
-463 -647 856 0
-463 -648 881 0
-463 -649 906 0
-463 -650 931 0
-464 -651 331 0
-464 -652 356 0
-464 -653 381 0
-464 -654 406 0
-464 -655 431 0
-464 -656 456 0
-464 -657 481 0
-464 -658 506 0
-464 -659 531 0
-464 -660 556 0
-464 -661 581 0
-464 -662 606 0
-464 -663 631 0
-464 -664 656 0
-464 -665 681 0
-464 -666 706 0
-464 -667 731 0
-464 -668 756 0
-464 -669 781 0
-464 -670 806 0
-464 -671 831 0
-464 -672 856 0
-464 -673 881 0
-464 -674 906 0
-464 -675 931 0
-465 -676 331 0
-465 -677 356 0
-465 -678 381 0
-465 -679 406 0
-465 -680 431 0
-465 -681 456 0
-465 -682 481 0
-465 -683 506 0
-465 -684 531 0
-465 -685 556 0
-465 -686 581 0
-465 -687 606 0
-465 -688 631 0
-465 -689 656 0
-465 -690 681 0
-465 -691 706 0
-465 -692 731 0
-465 -693 756 0
-465 -694 781 0
-465 -695 806 0
-465 -696 831 0
-465 -697 856 0
-465 -698 881 0
-465 -699 906 0
-465 -700 931 0
-466 -701 331 0
-466 -702 356 0
-466 -703 381 0
-466 -704 406 0
-466 -705 431 0
-466 -706 456 0
-466 -707 481 0
-466 -708 506 0
-466 -709 531 0
-466 -710 556 0
-466 -711 581 0
-466 -712 606 0
-466 -713 631 0
-466 -714 656 0
-466 -715 681 0
-466 -716 706 0
-466 -717 731 0
-466 -718 756 0
-466 -719 781 0
-466 -720 806 0
-466 -721 831 0
-466 -722 856 0
-466 -723 881 0
-466 -724 906 0
-466 -725 931 0
-467 -726 331 0
-467 -727 356 0
-467 -728 381 0
-467 -729 406 0
-467 -730 431 0
-467 -731 456 0
-467 -732 481 0
-467 -733 506 0
-467 -734 531 0
-467 -735 556 0
-467 -736 581 0
-467 -737 606 0
-467 -738 631 0
-467 -739 656 0
-467 -740 681 0
-467 -741 706 0
-467 -742 731 0
-467 -743 756 0
-467 -744 781 0
-467 -745 806 0
-467 -746 831 0
-467 -747 856 0
-467 -748 881 0
-467 -749 906 0
-467 -750 931 0
-468 -751 331 0
-468 -752 356 0
-468 -753 381 0
-468 -754 406 0
-468 -755 431 0
-468 -756 456 0
-468 -757 481 0
-468 -758 506 0
-468 -759 531 0
-468 -760 556 0
-468 -761 581 0
-468 -762 606 0
-468 -763 631 0
-468 -764 656 0
-468 -765 681 0
-468 -766 706 0
-468 -767 731 0
-468 -768 756 0
-468 -769 781 0
-468 -770 806 0
-468 -771 831 0
-468 -772 856 0
-468 -773 881 0
-468 -774 906 0
-468 -775 931 0
-469 -776 331 0
-469 -777 356 0
-469 -778 381 0
-469 -779 406 0
-469 -780 431 0
-469 -781 456 0
-469 -782 481 0
-469 -783 506 0
-469 -784 531 0
-469 -785 556 0
-469 -786 581 0
-469 -787 606 0
-469 -788 631 0
-469 -789 656 0
-469 -790 681 0
-469 -791 706 0
-469 -792 731 0
-469 -793 756 0
-469 -794 781 0
-469 -795 806 0
-469 -796 831 0
-469 -797 856 0
-469 -798 881 0
-469 -799 906 0
-469 -800 931 0
-470 -801 331 0
-470 -802 356 0
-470 -803 381 0
-470 -804 406 0
-470 -805 431 0
-470 -806 456 0
-470 -807 481 0
-470 -808 506 0
-470 -809 531 0
-470 -810 556 0
-470 -811 581 0
-470 -812 606 0
-470 -813 631 0
-470 -814 656 0
-470 -815 681 0
-470 -816 706 0
-470 -817 731 0
-470 -818 756 0
-470 -819 781 0
-470 -820 806 0
-470 -821 831 0
-470 -822 856 0
-470 -823 881 0
-470 -824 906 0
-470 -825 931 0
-471 -826 331 0
-471 -827 356 0
-471 -828 381 0
-471 -829 406 0
-471 -830 431 0
-471 -831 456 0
-471 -832 481 0
-471 -833 506 0
-471 -834 531 0
-471 -835 556 0
-471 -836 581 0
-471 -837 606 0
-471 -838 631 0
-471 -839 656 0
-471 -840 681 0
-471 -841 706 0
-471 -842 731 0
-471 -843 756 0
-471 -844 781 0
-471 -845 806 0
-471 -846 831 0
-471 -847 856 0
-471 -848 881 0
-471 -849 906 0
-471 -850 931 0
-472 -851 331 0
-472 -852 356 0
-472 -853 381 0
-472 -854 406 0
-472 -855 431 0
-472 -856 456 0
-472 -857 481 0
-472 -858 506 0
-472 -859 531 0
-472 -860 556 0
-472 -861 581 0
-472 -862 606 0
-472 -863 631 0
-472 -864 656 0
-472 -865 681 0
-472 -866 706 0
-472 -867 731 0
-472 -868 756 0
-472 -869 781 0
-472 -870 806 0
-472 -871 831 0
-472 -872 856 0
-472 -873 881 0
-472 -874 906 0
-472 -875 931 0
-473 -876 331 0
-473 -877 356 0
-473 -878 381 0
-473 -879 406 0
-473 -880 431 0
-473 -881 456 0
-473 -882 481 0
-473 -883 506 0
-473 -884 531 0
-473 -885 556 0
-473 -886 581 0
-473 -887 606 0
-473 -888 631 0
-473 -889 656 0
-473 -890 681 0
-473 -891 706 0
-473 -892 731 0
-473 -893 756 0
-473 -894 781 0
-473 -895 806 0
-473 -896 831 0
-473 -897 856 0
-473 -898 881 0
-473 -899 906 0
-473 -900 931 0
-474 -901 331 0
-474 -902 356 0
-474 -903 381 0
-474 -904 406 0
-474 -905 431 0
-474 -906 456 0
-474 -907 481 0
-474 -908 506 0
-474 -909 531 0
-474 -910 556 0
-474 -911 581 0
-474 -912 606 0
-474 -913 631 0
-474 -914 656 0
-474 -915 681 0
-474 -916 706 0
-474 -917 731 0
-474 -918 756 0
-474 -919 781 0
-474 -920 806 0
-474 -921 831 0
-474 -922 856 0
-474 -923 881 0
-474 -924 906 0
-474 -925 931 0
-475 -926 331 0
-475 -927 356 0
-475 -928 381 0
-475 -929 406 0
-475 -930 431 0
-475 -931 456 0
-475 -932 481 0
-475 -933 506 0
-475 -934 531 0
-475 -935 556 0
-475 -936 581 0
-475 -937 606 0
-475 -938 631 0
-475 -939 656 0
-475 -940 681 0
-475 -941 706 0
-475 -942 731 0
-475 -943 756 0
-475 -944 781 0
-475 -945 806 0
-475 -946 831 0
-475 -947 856 0
-475 -948 881 0
-475 -949 906 0
-475 -950 931 0
-476 -326 332 0
-476 -327 357 0
-476 -328 382 0
-476 -329 407 0
-476 -330 432 0
-476 -331 457 0
-476 -332 482 0
-476 -333 507 0
-476 -334 532 0
-476 -335 557 0
-476 -336 582 0
-476 -337 607 0
-476 -338 632 0
-476 -339 657 0
-476 -340 682 0
-476 -341 707 0
-476 -342 732 0
-476 -343 757 0
-476 -344 782 0
-476 -345 807 0
-476 -346 832 0
-476 -347 857 0
-476 -348 882 0
-476 -349 907 0
-476 -350 932 0
-477 -351 332 0
-477 -352 357 0
-477 -353 382 0
-477 -354 407 0
-477 -355 432 0
-477 -356 457 0
-477 -357 482 0
-477 -358 507 0
-477 -359 532 0
-477 -360 557 0
-477 -361 582 0
-477 -362 607 0
-477 -363 632 0
-477 -364 657 0
-477 -365 682 0
-477 -366 707 0
-477 -367 732 0
-477 -368 757 0
-477 -369 782 0
-477 -370 807 0
-477 -371 832 0
-477 -372 857 0
-477 -373 882 0
-477 -374 907 0
-477 -375 932 0
-478 -376 332 0
-478 -377 357 0
-478 -378 382 0
-478 -379 407 0
-478 -380 432 0
-478 -381 457 0
-478 -382 482 0
-478 -383 507 0
-478 -384 532 0
-478 -385 557 0
-478 -386 582 0
-478 -387 607 0
-478 -388 632 0
-478 -389 657 0
-478 -390 682 0
-478 -391 707 0
-478 -392 732 0
-478 -393 757 0
-478 -394 782 0
-478 -395 807 0
-478 -396 832 0
-478 -397 857 0
-478 -398 882 0
-478 -399 907 0
-478 -400 932 0
-479 -401 332 0
-479 -402 357 0
-479 -403 382 0
-479 -404 407 0
-479 -405 432 0
-479 -406 457 0
-479 -407 482 0
-479 -408 507 0
-479 -409 532 0
-479 -410 557 0
-479 -411 582 0
-479 -412 607 0
-479 -413 632 0
-479 -414 657 0
-479 -415 682 0
-479 -416 707 0
-479 -417 732 0
-479 -418 757 0
-479 -419 782 0
-479 -420 807 0
-479 -421 832 0
-479 -422 857 0
-479 -423 882 0
-479 -424 907 0
-479 -425 932 0
-480 -426 332 0
-480 -427 357 0
-480 -428 382 0
-480 -429 407 0
-480 -430 432 0
-480 -431 457 0
-480 -432 482 0
-480 -433 507 0
-480 -434 532 0
-480 -435 557 0
-480 -436 582 0
-480 -437 607 0
-480 -438 632 0
-480 -439 657 0
-480 -440 682 0
-480 -441 707 0
-480 -442 732 0
-480 -443 757 0
-480 -444 782 0
-480 -445 807 0
-480 -446 832 0
-480 -447 857 0
-480 -448 882 0
-480 -449 907 0
-480 -450 932 0
-481 -451 332 0
-481 -452 357 0
-481 -453 382 0
-481 -454 407 0
-481 -455 432 0
-481 -456 457 0
-481 -457 482 0
-481 -458 507 0
-481 -459 532 0
-481 -460 557 0
-481 -461 582 0
-481 -462 607 0
-481 -463 632 0
-481 -464 657 0
-481 -465 682 0
-481 -466 707 0
-481 -467 732 0
-481 -468 757 0
-481 -469 782 0
-481 -470 807 0
-481 -471 832 0
-481 -472 857 0
-481 -473 882 0
-481 -474 907 0
-481 -475 932 0
-482 -476 332 0
-482 -477 357 0
-482 -478 382 0
-482 -479 407 0
-482 -480 432 0
-482 -481 457 0
-482 -482 482 0
-482 -483 507 0
-482 -484 532 0
-482 -485 557 0
-482 -486 582 0
-482 -487 607 0
-482 -488 632 0
-482 -489 657 0
-482 -490 682 0
-482 -491 707 0
-482 -492 732 0
-482 -493 757 0
-482 -494 782 0
-482 -495 807 0
-482 -496 832 0
-482 -497 857 0
-482 -498 882 0
-482 -499 907 0
-482 -500 932 0
-483 -501 332 0
-483 -502 357 0
-483 -503 382 0
-483 -504 407 0
-483 -505 432 0
-483 -506 457 0
-483 -507 482 0
-483 -508 507 0
-483 -509 532 0
-483 -510 557 0
-483 -511 582 0
-483 -512 607 0
-483 -513 632 0
-483 -514 657 0
-483 -515 682 0
-483 -516 707 0
-483 -517 732 0
-483 -518 757 0
-483 -519 782 0
-483 -520 807 0
-483 -521 832 0
-483 -522 857 0
-483 -523 882 0
-483 -524 907 0
-483 -525 932 0
-484 -526 332 0
-484 -527 357 0
-484 -528 382 0
-484 -529 407 0
-484 -530 432 0
-484 -531 457 0
-484 -532 482 0
-484 -533 507 0
-484 -534 532 0
-484 -535 557 0
-484 -536 582 0
-484 -537 607 0
-484 -538 632 0
-484 -539 657 0
-484 -540 682 0
-484 -541 707 0
-484 -542 732 0
-484 -543 757 0
-484 -544 782 0
-484 -545 807 0
-484 -546 832 0
-484 -547 857 0
-484 -548 882 0
-484 -549 907 0
-484 -550 932 0
-485 -551 332 0
-485 -552 357 0
-485 -553 382 0
-485 -554 407 0
-485 -555 432 0
-485 -556 457 0
-485 -557 482 0
-485 -558 507 0
-485 -559 532 0
-485 -560 557 0
-485 -561 582 0
-485 -562 607 0
-485 -563 632 0
-485 -564 657 0
-485 -565 682 0
-485 -566 707 0
-485 -567 732 0
-485 -568 757 0
-485 -569 782 0
-485 -570 807 0
-485 -571 832 0
-485 -572 857 0
-485 -573 882 0
-485 -574 907 0
-485 -575 932 0
-486 -576 332 0
-486 -577 357 0
-486 -578 382 0
-486 -579 407 0
-486 -580 432 0
-486 -581 457 0
-486 -582 482 0
-486 -583 507 0
-486 -584 532 0
-486 -585 557 0
-486 -586 582 0
-486 -587 607 0
-486 -588 632 0
-486 -589 657 0
-486 -590 682 0
-486 -591 707 0
-486 -592 732 0
-486 -593 757 0
-486 -594 782 0
-486 -595 807 0
-486 -596 832 0
-486 -597 857 0
-486 -598 882 0
-486 -599 907 0
-486 -600 932 0
-487 -601 332 0
-487 -602 357 0
-487 -603 382 0
-487 -604 407 0
-487 -605 432 0
-487 -606 457 0
-487 -607 482 0
-487 -608 507 0
-487 -609 532 0
-487 -610 557 0
-487 -611 582 0
-487 -612 607 0
-487 -613 632 0
-487 -614 657 0
-487 -615 682 0
-487 -616 707 0
-487 -617 732 0
-487 -618 757 0
-487 -619 782 0
-487 -620 807 0
-487 -621 832 0
-487 -622 857 0
-487 -623 882 0
-487 -624 907 0
-487 -625 932 0
-488 -626 332 0
-488 -627 357 0
-488 -628 382 0
-488 -629 407 0
-488 -630 432 0
-488 -631 457 0
-488 -632 482 0
-488 -633 507 0
-488 -634 532 0
-488 -635 557 0
-488 -636 582 0
-488 -637 607 0
-488 -638 632 0
-488 -639 657 0
-488 -640 682 0
-488 -641 707 0
-488 -642 732 0
-488 -643 757 0
-488 -644 782 0
-488 -645 807 0
-488 -646 832 0
-488 -647 857 0
-488 -648 882 0
-488 -649 907 0
-488 -650 932 0
-489 -651 332 0
-489 -652 357 0
-489 -653 382 0
-489 -654 407 0
-489 -655 432 0
-489 -656 457 0
-489 -657 482 0
-489 -658 507 0
-489 -659 532 0
-489 -660 557 0
-489 -661 582 0
-489 -662 607 0
-489 -663 632 0
-489 -664 657 0
-489 -665 682 0
-489 -666 707 0
-489 -667 732 0
-489 -668 757 0
-489 -669 782 0
-489 -670 807 0
-489 -671 832 0
-489 -672 857 0
-489 -673 882 0
-489 -674 907 0
-489 -675 932 0
-490 -676 332 0
-490 -677 357 0
-490 -678 382 0
-490 -679 407 0
-490 -680 432 0
-490 -681 457 0
-490 -682 482 0
-490 -683 507 0
-490 -684 532 0
-490 -685 557 0
-490 -686 582 0
-490 -687 607 0
-490 -688 632 0
-490 -689 657 0
-490 -690 682 0
-490 -691 707 0
-490 -692 732 0
-490 -693 757 0
-490 -694 782 0
-490 -695 807 0
-490 -696 832 0
-490 -697 857 0
-490 -698 882 0
-490 -699 907 0
-490 -700 932 0
-491 -701 332 0
-491 -702 357 0
-491 -703 382 0
-491 -704 407 0
-491 -705 432 0
-491 -706 457 0
-491 -707 482 0
-491 -708 507 0
-491 -709 532 0
-491 -710 557 0
-491 -711 582 0
-491 -712 607 0
-491 -713 632 0
-491 -714 657 0
-491 -715 682 0
-491 -716 707 0
-491 -717 732 0
-491 -718 757 0
-491 -719 782 0
-491 -720 807 0
-491 -721 832 0
-491 -722 857 0
-491 -723 882 0
-491 -724 907 0
-491 -725 932 0
-492 -726 332 0
-492 -727 357 0
-492 -728 382 0
-492 -729 407 0
-492 -730 432 0
-492 -731 457 0
-492 -732 482 0
-492 -733 507 0
-492 -734 532 0
-492 -735 557 0
-492 -736 582 0
-492 -737 607 0
-492 -738 632 0
-492 -739 657 0
-492 -740 682 0
-492 -741 707 0
-492 -742 732 0
-492 -743 757 0
-492 -744 782 0
-492 -745 807 0
-492 -746 832 0
-492 -747 857 0
-492 -748 882 0
-492 -749 907 0
-492 -750 932 0
-493 -751 332 0
-493 -752 357 0
-493 -753 382 0
-493 -754 407 0
-493 -755 432 0
-493 -756 457 0
-493 -757 482 0
-493 -758 507 0
-493 -759 532 0
-493 -760 557 0
-493 -761 582 0
-493 -762 607 0
-493 -763 632 0
-493 -764 657 0
-493 -765 682 0
-493 -766 707 0
-493 -767 732 0
-493 -768 757 0
-493 -769 782 0
-493 -770 807 0
-493 -771 832 0
-493 -772 857 0
-493 -773 882 0
-493 -774 907 0
-493 -775 932 0
-494 -776 332 0
-494 -777 357 0
-494 -778 382 0
-494 -779 407 0
-494 -780 432 0
-494 -781 457 0
-494 -782 482 0
-494 -783 507 0
-494 -784 532 0
-494 -785 557 0
-494 -786 582 0
-494 -787 607 0
-494 -788 632 0
-494 -789 657 0
-494 -790 682 0
-494 -791 707 0
-494 -792 732 0
-494 -793 757 0
-494 -794 782 0
-494 -795 807 0
-494 -796 832 0
-494 -797 857 0
-494 -798 882 0
-494 -799 907 0
-494 -800 932 0
-495 -801 332 0
-495 -802 357 0
-495 -803 382 0
-495 -804 407 0
-495 -805 432 0
-495 -806 457 0
-495 -807 482 0
-495 -808 507 0
-495 -809 532 0
-495 -810 557 0
-495 -811 582 0
-495 -812 607 0
-495 -813 632 0
-495 -814 657 0
-495 -815 682 0
-495 -816 707 0
-495 -817 732 0
-495 -818 757 0
-495 -819 782 0
-495 -820 807 0
-495 -821 832 0
-495 -822 857 0
-495 -823 882 0
-495 -824 907 0
-495 -825 932 0
-496 -826 332 0
-496 -827 357 0
-496 -828 382 0
-496 -829 407 0
-496 -830 432 0
-496 -831 457 0
-496 -832 482 0
-496 -833 507 0
-496 -834 532 0
-496 -835 557 0
-496 -836 582 0
-496 -837 607 0
-496 -838 632 0
-496 -839 657 0
-496 -840 682 0
-496 -841 707 0
-496 -842 732 0
-496 -843 757 0
-496 -844 782 0
-496 -845 807 0
-496 -846 832 0
-496 -847 857 0
-496 -848 882 0
-496 -849 907 0
-496 -850 932 0
-497 -851 332 0
-497 -852 357 0
-497 -853 382 0
-497 -854 407 0
-497 -855 432 0
-497 -856 457 0
-497 -857 482 0
-497 -858 507 0
-497 -859 532 0
-497 -860 557 0
-497 -861 582 0
-497 -862 607 0
-497 -863 632 0
-497 -864 657 0
-497 -865 682 0
-497 -866 707 0
-497 -867 732 0
-497 -868 757 0
-497 -869 782 0
-497 -870 807 0
-497 -871 832 0
-497 -872 857 0
-497 -873 882 0
-497 -874 907 0
-497 -875 932 0
-498 -876 332 0
-498 -877 357 0
-498 -878 382 0
-498 -879 407 0
-498 -880 432 0
-498 -881 457 0
-498 -882 482 0
-498 -883 507 0
-498 -884 532 0
-498 -885 557 0
-498 -886 582 0
-498 -887 607 0
-498 -888 632 0
-498 -889 657 0
-498 -890 682 0
-498 -891 707 0
-498 -892 732 0
-498 -893 757 0
-498 -894 782 0
-498 -895 807 0
-498 -896 832 0
-498 -897 857 0
-498 -898 882 0
-498 -899 907 0
-498 -900 932 0
-499 -901 332 0
-499 -902 357 0
-499 -903 382 0
-499 -904 407 0
-499 -905 432 0
-499 -906 457 0
-499 -907 482 0
-499 -908 507 0
-499 -909 532 0
-499 -910 557 0
-499 -911 582 0
-499 -912 607 0
-499 -913 632 0
-499 -914 657 0
-499 -915 682 0
-499 -916 707 0
-499 -917 732 0
-499 -918 757 0
-499 -919 782 0
-499 -920 807 0
-499 -921 832 0
-499 -922 857 0
-499 -923 882 0
-499 -924 907 0
-499 -925 932 0
-500 -926 332 0
-500 -927 357 0
-500 -928 382 0
-500 -929 407 0
-500 -930 432 0
-500 -931 457 0
-500 -932 482 0
-500 -933 507 0
-500 -934 532 0
-500 -935 557 0
-500 -936 582 0
-500 -937 607 0
-500 -938 632 0
-500 -939 657 0
-500 -940 682 0
-500 -941 707 0
-500 -942 732 0
-500 -943 757 0
-500 -944 782 0
-500 -945 807 0
-500 -946 832 0
-500 -947 857 0
-500 -948 882 0
-500 -949 907 0
-500 -950 932 0
-501 -326 333 0
-501 -327 358 0
-501 -328 383 0
-501 -329 408 0
-501 -330 433 0
-501 -331 458 0
-501 -332 483 0
-501 -333 508 0
-501 -334 533 0
-501 -335 558 0
-501 -336 583 0
-501 -337 608 0
-501 -338 633 0
-501 -339 658 0
-501 -340 683 0
-501 -341 708 0
-501 -342 733 0
-501 -343 758 0
-501 -344 783 0
-501 -345 808 0
-501 -346 833 0
-501 -347 858 0
-501 -348 883 0
-501 -349 908 0
-501 -350 933 0
-502 -351 333 0
-502 -352 358 0
-502 -353 383 0
-502 -354 408 0
-502 -355 433 0
-502 -356 458 0
-502 -357 483 0
-502 -358 508 0
-502 -359 533 0
-502 -360 558 0
-502 -361 583 0
-502 -362 608 0
-502 -363 633 0
-502 -364 658 0
-502 -365 683 0
-502 -366 708 0
-502 -367 733 0
-502 -368 758 0
-502 -369 783 0
-502 -370 808 0
-502 -371 833 0
-502 -372 858 0
-502 -373 883 0
-502 -374 908 0
-502 -375 933 0
-503 -376 333 0
-503 -377 358 0
-503 -378 383 0
-503 -379 408 0
-503 -380 433 0
-503 -381 458 0
-503 -382 483 0
-503 -383 508 0
-503 -384 533 0
-503 -385 558 0
-503 -386 583 0
-503 -387 608 0
-503 -388 633 0
-503 -389 658 0
-503 -390 683 0
-503 -391 708 0
-503 -392 733 0
-503 -393 758 0
-503 -394 783 0
-503 -395 808 0
-503 -396 833 0
-503 -397 858 0
-503 -398 883 0
-503 -399 908 0
-503 -400 933 0
-504 -401 333 0
-504 -402 358 0
-504 -403 383 0
-504 -404 408 0
-504 -405 433 0
-504 -406 458 0
-504 -407 483 0
-504 -408 508 0
-504 -409 533 0
-504 -410 558 0
-504 -411 583 0
-504 -412 608 0
-504 -413 633 0
-504 -414 658 0
-504 -415 683 0
-504 -416 708 0
-504 -417 733 0
-504 -418 758 0
-504 -419 783 0
-504 -420 808 0
-504 -421 833 0
-504 -422 858 0
-504 -423 883 0
-504 -424 908 0
-504 -425 933 0
-505 -426 333 0
-505 -427 358 0
-505 -428 383 0
-505 -429 408 0
-505 -430 433 0
-505 -431 458 0
-505 -432 483 0
-505 -433 508 0
-505 -434 533 0
-505 -435 558 0
-505 -436 583 0
-505 -437 608 0
-505 -438 633 0
-505 -439 658 0
-505 -440 683 0
-505 -441 708 0
-505 -442 733 0
-505 -443 758 0
-505 -444 783 0
-505 -445 808 0
-505 -446 833 0
-505 -447 858 0
-505 -448 883 0
-505 -449 908 0
-505 -450 933 0
-506 -451 333 0
-506 -452 358 0
-506 -453 383 0
-506 -454 408 0
-506 -455 433 0
-506 -456 458 0
-506 -457 483 0
-506 -458 508 0
-506 -459 533 0
-506 -460 558 0
-506 -461 583 0
-506 -462 608 0
-506 -463 633 0
-506 -464 658 0
-506 -465 683 0
-506 -466 708 0
-506 -467 733 0
-506 -468 758 0
-506 -469 783 0
-506 -470 808 0
-506 -471 833 0
-506 -472 858 0
-506 -473 883 0
-506 -474 908 0
-506 -475 933 0
-507 -476 333 0
-507 -477 358 0
-507 -478 383 0
-507 -479 408 0
-507 -480 433 0
-507 -481 458 0
-507 -482 483 0
-507 -483 508 0
-507 -484 533 0
-507 -485 558 0
-507 -486 583 0
-507 -487 608 0
-507 -488 633 0
-507 -489 658 0
-507 -490 683 0
-507 -491 708 0
-507 -492 733 0
-507 -493 758 0
-507 -494 783 0
-507 -495 808 0
-507 -496 833 0
-507 -497 858 0
-507 -498 883 0
-507 -499 908 0
-507 -500 933 0
-508 -501 333 0
-508 -502 358 0
-508 -503 383 0
-508 -504 408 0
-508 -505 433 0
-508 -506 458 0
-508 -507 483 0
-508 -508 508 0
-508 -509 533 0
-508 -510 558 0
-508 -511 583 0
-508 -512 608 0
-508 -513 633 0
-508 -514 658 0
-508 -515 683 0
-508 -516 708 0
-508 -517 733 0
-508 -518 758 0
-508 -519 783 0
-508 -520 808 0
-508 -521 833 0
-508 -522 858 0
-508 -523 883 0
-508 -524 908 0
-508 -525 933 0
-509 -526 333 0
-509 -527 358 0
-509 -528 383 0
-509 -529 408 0
-509 -530 433 0
-509 -531 458 0
-509 -532 483 0
-509 -533 508 0
-509 -534 533 0
-509 -535 558 0
-509 -536 583 0
-509 -537 608 0
-509 -538 633 0
-509 -539 658 0
-509 -540 683 0
-509 -541 708 0
-509 -542 733 0
-509 -543 758 0
-509 -544 783 0
-509 -545 808 0
-509 -546 833 0
-509 -547 858 0
-509 -548 883 0
-509 -549 908 0
-509 -550 933 0
-510 -551 333 0
-510 -552 358 0
-510 -553 383 0
-510 -554 408 0
-510 -555 433 0
-510 -556 458 0
-510 -557 483 0
-510 -558 508 0
-510 -559 533 0
-510 -560 558 0
-510 -561 583 0
-510 -562 608 0
-510 -563 633 0
-510 -564 658 0
-510 -565 683 0
-510 -566 708 0
-510 -567 733 0
-510 -568 758 0
-510 -569 783 0
-510 -570 808 0
-510 -571 833 0
-510 -572 858 0
-510 -573 883 0
-510 -574 908 0
-510 -575 933 0
-511 -576 333 0
-511 -577 358 0
-511 -578 383 0
-511 -579 408 0
-511 -580 433 0
-511 -581 458 0
-511 -582 483 0
-511 -583 508 0
-511 -584 533 0
-511 -585 558 0
-511 -586 583 0
-511 -587 608 0
-511 -588 633 0
-511 -589 658 0
-511 -590 683 0
-511 -591 708 0
-511 -592 733 0
-511 -593 758 0
-511 -594 783 0
-511 -595 808 0
-511 -596 833 0
-511 -597 858 0
-511 -598 883 0
-511 -599 908 0
-511 -600 933 0
-512 -601 333 0
-512 -602 358 0
-512 -603 383 0
-512 -604 408 0
-512 -605 433 0
-512 -606 458 0
-512 -607 483 0
-512 -608 508 0
-512 -609 533 0
-512 -610 558 0
-512 -611 583 0
-512 -612 608 0
-512 -613 633 0
-512 -614 658 0
-512 -615 683 0
-512 -616 708 0
-512 -617 733 0
-512 -618 758 0
-512 -619 783 0
-512 -620 808 0
-512 -621 833 0
-512 -622 858 0
-512 -623 883 0
-512 -624 908 0
-512 -625 933 0
-513 -626 333 0
-513 -627 358 0
-513 -628 383 0
-513 -629 408 0
-513 -630 433 0
-513 -631 458 0
-513 -632 483 0
-513 -633 508 0
-513 -634 533 0
-513 -635 558 0
-513 -636 583 0
-513 -637 608 0
-513 -638 633 0
-513 -639 658 0
-513 -640 683 0
-513 -641 708 0
-513 -642 733 0
-513 -643 758 0
-513 -644 783 0
-513 -645 808 0
-513 -646 833 0
-513 -647 858 0
-513 -648 883 0
-513 -649 908 0
-513 -650 933 0
-514 -651 333 0
-514 -652 358 0
-514 -653 383 0
-514 -654 408 0
-514 -655 433 0
-514 -656 458 0
-514 -657 483 0
-514 -658 508 0
-514 -659 533 0
-514 -660 558 0
-514 -661 583 0
-514 -662 608 0
-514 -663 633 0
-514 -664 658 0
-514 -665 683 0
-514 -666 708 0
-514 -667 733 0
-514 -668 758 0
-514 -669 783 0
-514 -670 808 0
-514 -671 833 0
-514 -672 858 0
-514 -673 883 0
-514 -674 908 0
-514 -675 933 0
-515 -676 333 0
-515 -677 358 0
-515 -678 383 0
-515 -679 408 0
-515 -680 433 0
-515 -681 458 0
-515 -682 483 0
-515 -683 508 0
-515 -684 533 0
-515 -685 558 0
-515 -686 583 0
-515 -687 608 0
-515 -688 633 0
-515 -689 658 0
-515 -690 683 0
-515 -691 708 0
-515 -692 733 0
-515 -693 758 0
-515 -694 783 0
-515 -695 808 0
-515 -696 833 0
-515 -697 858 0
-515 -698 883 0
-515 -699 908 0
-515 -700 933 0
-516 -701 333 0
-516 -702 358 0
-516 -703 383 0
-516 -704 408 0
-516 -705 433 0
-516 -706 458 0
-516 -707 483 0
-516 -708 508 0
-516 -709 533 0
-516 -710 558 0
-516 -711 583 0
-516 -712 608 0
-516 -713 633 0
-516 -714 658 0
-516 -715 683 0
-516 -716 708 0
-516 -717 733 0
-516 -718 758 0
-516 -719 783 0
-516 -720 808 0
-516 -721 833 0
-516 -722 858 0
-516 -723 883 0
-516 -724 908 0
-516 -725 933 0
-517 -726 333 0
-517 -727 358 0
-517 -728 383 0
-517 -729 408 0
-517 -730 433 0
-517 -731 458 0
-517 -732 483 0
-517 -733 508 0
-517 -734 533 0
-517 -735 558 0
-517 -736 583 0
-517 -737 608 0
-517 -738 633 0
-517 -739 658 0
-517 -740 683 0
-517 -741 708 0
-517 -742 733 0
-517 -743 758 0
-517 -744 783 0
-517 -745 808 0
-517 -746 833 0
-517 -747 858 0
-517 -748 883 0
-517 -749 908 0
-517 -750 933 0
-518 -751 333 0
-518 -752 358 0
-518 -753 383 0
-518 -754 408 0
-518 -755 433 0
-518 -756 458 0
-518 -757 483 0
-518 -758 508 0
-518 -759 533 0
-518 -760 558 0
-518 -761 583 0
-518 -762 608 0
-518 -763 633 0
-518 -764 658 0
-518 -765 683 0
-518 -766 708 0
-518 -767 733 0
-518 -768 758 0
-518 -769 783 0
-518 -770 808 0
-518 -771 833 0
-518 -772 858 0
-518 -773 883 0
-518 -774 908 0
-518 -775 933 0
-519 -776 333 0
-519 -777 358 0
-519 -778 383 0
-519 -779 408 0
-519 -780 433 0
-519 -781 458 0
-519 -782 483 0
-519 -783 508 0
-519 -784 533 0
-519 -785 558 0
-519 -786 583 0
-519 -787 608 0
-519 -788 633 0
-519 -789 658 0
-519 -790 683 0
-519 -791 708 0
-519 -792 733 0
-519 -793 758 0
-519 -794 783 0
-519 -795 808 0
-519 -796 833 0
-519 -797 858 0
-519 -798 883 0
-519 -799 908 0
-519 -800 933 0
-520 -801 333 0
-520 -802 358 0
-520 -803 383 0
-520 -804 408 0
-520 -805 433 0
-520 -806 458 0
-520 -807 483 0
-520 -808 508 0
-520 -809 533 0
-520 -810 558 0
-520 -811 583 0
-520 -812 608 0
-520 -813 633 0
-520 -814 658 0
-520 -815 683 0
-520 -816 708 0
-520 -817 733 0
-520 -818 758 0
-520 -819 783 0
-520 -820 808 0
-520 -821 833 0
-520 -822 858 0
-520 -823 883 0
-520 -824 908 0
-520 -825 933 0
-521 -826 333 0
-521 -827 358 0
-521 -828 383 0
-521 -829 408 0
-521 -830 433 0
-521 -831 458 0
-521 -832 483 0
-521 -833 508 0
-521 -834 533 0
-521 -835 558 0
-521 -836 583 0
-521 -837 608 0
-521 -838 633 0
-521 -839 658 0
-521 -840 683 0
-521 -841 708 0
-521 -842 733 0
-521 -843 758 0
-521 -844 783 0
-521 -845 808 0
-521 -846 833 0
-521 -847 858 0
-521 -848 883 0
-521 -849 908 0
-521 -850 933 0
-522 -851 333 0
-522 -852 358 0
-522 -853 383 0
-522 -854 408 0
-522 -855 433 0
-522 -856 458 0
-522 -857 483 0
-522 -858 508 0
-522 -859 533 0
-522 -860 558 0
-522 -861 583 0
-522 -862 608 0
-522 -863 633 0
-522 -864 658 0
-522 -865 683 0
-522 -866 708 0
-522 -867 733 0
-522 -868 758 0
-522 -869 783 0
-522 -870 808 0
-522 -871 833 0
-522 -872 858 0
-522 -873 883 0
-522 -874 908 0
-522 -875 933 0
-523 -876 333 0
-523 -877 358 0
-523 -878 383 0
-523 -879 408 0
-523 -880 433 0
-523 -881 458 0
-523 -882 483 0
-523 -883 508 0
-523 -884 533 0
-523 -885 558 0
-523 -886 583 0
-523 -887 608 0
-523 -888 633 0
-523 -889 658 0
-523 -890 683 0
-523 -891 708 0
-523 -892 733 0
-523 -893 758 0
-523 -894 783 0
-523 -895 808 0
-523 -896 833 0
-523 -897 858 0
-523 -898 883 0
-523 -899 908 0
-523 -900 933 0
-524 -901 333 0
-524 -902 358 0
-524 -903 383 0
-524 -904 408 0
-524 -905 433 0
-524 -906 458 0
-524 -907 483 0
-524 -908 508 0
-524 -909 533 0
-524 -910 558 0
-524 -911 583 0
-524 -912 608 0
-524 -913 633 0
-524 -914 658 0
-524 -915 683 0
-524 -916 708 0
-524 -917 733 0
-524 -918 758 0
-524 -919 783 0
-524 -920 808 0
-524 -921 833 0
-524 -922 858 0
-524 -923 883 0
-524 -924 908 0
-524 -925 933 0
-525 -926 333 0
-525 -927 358 0
-525 -928 383 0
-525 -929 408 0
-525 -930 433 0
-525 -931 458 0
-525 -932 483 0
-525 -933 508 0
-525 -934 533 0
-525 -935 558 0
-525 -936 583 0
-525 -937 608 0
-525 -938 633 0
-525 -939 658 0
-525 -940 683 0
-525 -941 708 0
-525 -942 733 0
-525 -943 758 0
-525 -944 783 0
-525 -945 808 0
-525 -946 833 0
-525 -947 858 0
-525 -948 883 0
-525 -949 908 0
-525 -950 933 0
-526 -326 334 0
-526 -327 359 0
-526 -328 384 0
-526 -329 409 0
-526 -330 434 0
-526 -331 459 0
-526 -332 484 0
-526 -333 509 0
-526 -334 534 0
-526 -335 559 0
-526 -336 584 0
-526 -337 609 0
-526 -338 634 0
-526 -339 659 0
-526 -340 684 0
-526 -341 709 0
-526 -342 734 0
-526 -343 759 0
-526 -344 784 0
-526 -345 809 0
-526 -346 834 0
-526 -347 859 0
-526 -348 884 0
-526 -349 909 0
-526 -350 934 0
-527 -351 334 0
-527 -352 359 0
-527 -353 384 0
-527 -354 409 0
-527 -355 434 0
-527 -356 459 0
-527 -357 484 0
-527 -358 509 0
-527 -359 534 0
-527 -360 559 0
-527 -361 584 0
-527 -362 609 0
-527 -363 634 0
-527 -364 659 0
-527 -365 684 0
-527 -366 709 0
-527 -367 734 0
-527 -368 759 0
-527 -369 784 0
-527 -370 809 0
-527 -371 834 0
-527 -372 859 0
-527 -373 884 0
-527 -374 909 0
-527 -375 934 0
-528 -376 334 0
-528 -377 359 0
-528 -378 384 0
-528 -379 409 0
-528 -380 434 0
-528 -381 459 0
-528 -382 484 0
-528 -383 509 0
-528 -384 534 0
-528 -385 559 0
-528 -386 584 0
-528 -387 609 0
-528 -388 634 0
-528 -389 659 0
-528 -390 684 0
-528 -391 709 0
-528 -392 734 0
-528 -393 759 0
-528 -394 784 0
-528 -395 809 0
-528 -396 834 0
-528 -397 859 0
-528 -398 884 0
-528 -399 909 0
-528 -400 934 0
-529 -401 334 0
-529 -402 359 0
-529 -403 384 0
-529 -404 409 0
-529 -405 434 0
-529 -406 459 0
-529 -407 484 0
-529 -408 509 0
-529 -409 534 0
-529 -410 559 0
-529 -411 584 0
-529 -412 609 0
-529 -413 634 0
-529 -414 659 0
-529 -415 684 0
-529 -416 709 0
-529 -417 734 0
-529 -418 759 0
-529 -419 784 0
-529 -420 809 0
-529 -421 834 0
-529 -422 859 0
-529 -423 884 0
-529 -424 909 0
-529 -425 934 0
-530 -426 334 0
-530 -427 359 0
-530 -428 384 0
-530 -429 409 0
-530 -430 434 0
-530 -431 459 0
-530 -432 484 0
-530 -433 509 0
-530 -434 534 0
-530 -435 559 0
-530 -436 584 0
-530 -437 609 0
-530 -438 634 0
-530 -439 659 0
-530 -440 684 0
-530 -441 709 0
-530 -442 734 0
-530 -443 759 0
-530 -444 784 0
-530 -445 809 0
-530 -446 834 0
-530 -447 859 0
-530 -448 884 0
-530 -449 909 0
-530 -450 934 0
-531 -451 334 0
-531 -452 359 0
-531 -453 384 0
-531 -454 409 0
-531 -455 434 0
-531 -456 459 0
-531 -457 484 0
-531 -458 509 0
-531 -459 534 0
-531 -460 559 0
-531 -461 584 0
-531 -462 609 0
-531 -463 634 0
-531 -464 659 0
-531 -465 684 0
-531 -466 709 0
-531 -467 734 0
-531 -468 759 0
-531 -469 784 0
-531 -470 809 0
-531 -471 834 0
-531 -472 859 0
-531 -473 884 0
-531 -474 909 0
-531 -475 934 0
-532 -476 334 0
-532 -477 359 0
-532 -478 384 0
-532 -479 409 0
-532 -480 434 0
-532 -481 459 0
-532 -482 484 0
-532 -483 509 0
-532 -484 534 0
-532 -485 559 0
-532 -486 584 0
-532 -487 609 0
-532 -488 634 0
-532 -489 659 0
-532 -490 684 0
-532 -491 709 0
-532 -492 734 0
-532 -493 759 0
-532 -494 784 0
-532 -495 809 0
-532 -496 834 0
-532 -497 859 0
-532 -498 884 0
-532 -499 909 0
-532 -500 934 0
-533 -501 334 0
-533 -502 359 0
-533 -503 384 0
-533 -504 409 0
-533 -505 434 0
-533 -506 459 0
-533 -507 484 0
-533 -508 509 0
-533 -509 534 0
-533 -510 559 0
-533 -511 584 0
-533 -512 609 0
-533 -513 634 0
-533 -514 659 0
-533 -515 684 0
-533 -516 709 0
-533 -517 734 0
-533 -518 759 0
-533 -519 784 0
-533 -520 809 0
-533 -521 834 0
-533 -522 859 0
-533 -523 884 0
-533 -524 909 0
-533 -525 934 0
-534 -526 334 0
-534 -527 359 0
-534 -528 384 0
-534 -529 409 0
-534 -530 434 0
-534 -531 459 0
-534 -532 484 0
-534 -533 509 0
-534 -534 534 0
-534 -535 559 0
-534 -536 584 0
-534 -537 609 0
-534 -538 634 0
-534 -539 659 0
-534 -540 684 0
-534 -541 709 0
-534 -542 734 0
-534 -543 759 0
-534 -544 784 0
-534 -545 809 0
-534 -546 834 0
-534 -547 859 0
-534 -548 884 0
-534 -549 909 0
-534 -550 934 0
-535 -551 334 0
-535 -552 359 0
-535 -553 384 0
-535 -554 409 0
-535 -555 434 0
-535 -556 459 0
-535 -557 484 0
-535 -558 509 0
-535 -559 534 0
-535 -560 559 0
-535 -561 584 0
-535 -562 609 0
-535 -563 634 0
-535 -564 659 0
-535 -565 684 0
-535 -566 709 0
-535 -567 734 0
-535 -568 759 0
-535 -569 784 0
-535 -570 809 0
-535 -571 834 0
-535 -572 859 0
-535 -573 884 0
-535 -574 909 0
-535 -575 934 0
-536 -576 334 0
-536 -577 359 0
-536 -578 384 0
-536 -579 409 0
-536 -580 434 0
-536 -581 459 0
-536 -582 484 0
-536 -583 509 0
-536 -584 534 0
-536 -585 559 0
-536 -586 584 0
-536 -587 609 0
-536 -588 634 0
-536 -589 659 0
-536 -590 684 0
-536 -591 709 0
-536 -592 734 0
-536 -593 759 0
-536 -594 784 0
-536 -595 809 0
-536 -596 834 0
-536 -597 859 0
-536 -598 884 0
-536 -599 909 0
-536 -600 934 0
-537 -601 334 0
-537 -602 359 0
-537 -603 384 0
-537 -604 409 0
-537 -605 434 0
-537 -606 459 0
-537 -607 484 0
-537 -608 509 0
-537 -609 534 0
-537 -610 559 0
-537 -611 584 0
-537 -612 609 0
-537 -613 634 0
-537 -614 659 0
-537 -615 684 0
-537 -616 709 0
-537 -617 734 0
-537 -618 759 0
-537 -619 784 0
-537 -620 809 0
-537 -621 834 0
-537 -622 859 0
-537 -623 884 0
-537 -624 909 0
-537 -625 934 0
-538 -626 334 0
-538 -627 359 0
-538 -628 384 0
-538 -629 409 0
-538 -630 434 0
-538 -631 459 0
-538 -632 484 0
-538 -633 509 0
-538 -634 534 0
-538 -635 559 0
-538 -636 584 0
-538 -637 609 0
-538 -638 634 0
-538 -639 659 0
-538 -640 684 0
-538 -641 709 0
-538 -642 734 0
-538 -643 759 0
-538 -644 784 0
-538 -645 809 0
-538 -646 834 0
-538 -647 859 0
-538 -648 884 0
-538 -649 909 0
-538 -650 934 0
-539 -651 334 0
-539 -652 359 0
-539 -653 384 0
-539 -654 409 0
-539 -655 434 0
-539 -656 459 0
-539 -657 484 0
-539 -658 509 0
-539 -659 534 0
-539 -660 559 0
-539 -661 584 0
-539 -662 609 0
-539 -663 634 0
-539 -664 659 0
-539 -665 684 0
-539 -666 709 0
-539 -667 734 0
-539 -668 759 0
-539 -669 784 0
-539 -670 809 0
-539 -671 834 0
-539 -672 859 0
-539 -673 884 0
-539 -674 909 0
-539 -675 934 0
-540 -676 334 0
-540 -677 359 0
-540 -678 384 0
-540 -679 409 0
-540 -680 434 0
-540 -681 459 0
-540 -682 484 0
-540 -683 509 0
-540 -684 534 0
-540 -685 559 0
-540 -686 584 0
-540 -687 609 0
-540 -688 634 0
-540 -689 659 0
-540 -690 684 0
-540 -691 709 0
-540 -692 734 0
-540 -693 759 0
-540 -694 784 0
-540 -695 809 0
-540 -696 834 0
-540 -697 859 0
-540 -698 884 0
-540 -699 909 0
-540 -700 934 0
-541 -701 334 0
-541 -702 359 0
-541 -703 384 0
-541 -704 409 0
-541 -705 434 0
-541 -706 459 0
-541 -707 484 0
-541 -708 509 0
-541 -709 534 0
-541 -710 559 0
-541 -711 584 0
-541 -712 609 0
-541 -713 634 0
-541 -714 659 0
-541 -715 684 0
-541 -716 709 0
-541 -717 734 0
-541 -718 759 0
-541 -719 784 0
-541 -720 809 0
-541 -721 834 0
-541 -722 859 0
-541 -723 884 0
-541 -724 909 0
-541 -725 934 0
-542 -726 334 0
-542 -727 359 0
-542 -728 384 0
-542 -729 409 0
-542 -730 434 0
-542 -731 459 0
-542 -732 484 0
-542 -733 509 0
-542 -734 534 0
-542 -735 559 0
-542 -736 584 0
-542 -737 609 0
-542 -738 634 0
-542 -739 659 0
-542 -740 684 0
-542 -741 709 0
-542 -742 734 0
-542 -743 759 0
-542 -744 784 0
-542 -745 809 0
-542 -746 834 0
-542 -747 859 0
-542 -748 884 0
-542 -749 909 0
-542 -750 934 0
-543 -751 334 0
-543 -752 359 0
-543 -753 384 0
-543 -754 409 0
-543 -755 434 0
-543 -756 459 0
-543 -757 484 0
-543 -758 509 0
-543 -759 534 0
-543 -760 559 0
-543 -761 584 0
-543 -762 609 0
-543 -763 634 0
-543 -764 659 0
-543 -765 684 0
-543 -766 709 0
-543 -767 734 0
-543 -768 759 0
-543 -769 784 0
-543 -770 809 0
-543 -771 834 0
-543 -772 859 0
-543 -773 884 0
-543 -774 909 0
-543 -775 934 0
-544 -776 334 0
-544 -777 359 0
-544 -778 384 0
-544 -779 409 0
-544 -780 434 0
-544 -781 459 0
-544 -782 484 0
-544 -783 509 0
-544 -784 534 0
-544 -785 559 0
-544 -786 584 0
-544 -787 609 0
-544 -788 634 0
-544 -789 659 0
-544 -790 684 0
-544 -791 709 0
-544 -792 734 0
-544 -793 759 0
-544 -794 784 0
-544 -795 809 0
-544 -796 834 0
-544 -797 859 0
-544 -798 884 0
-544 -799 909 0
-544 -800 934 0
-545 -801 334 0
-545 -802 359 0
-545 -803 384 0
-545 -804 409 0
-545 -805 434 0
-545 -806 459 0
-545 -807 484 0
-545 -808 509 0
-545 -809 534 0
-545 -810 559 0
-545 -811 584 0
-545 -812 609 0
-545 -813 634 0
-545 -814 659 0
-545 -815 684 0
-545 -816 709 0
-545 -817 734 0
-545 -818 759 0
-545 -819 784 0
-545 -820 809 0
-545 -821 834 0
-545 -822 859 0
-545 -823 884 0
-545 -824 909 0
-545 -825 934 0
-546 -826 334 0
-546 -827 359 0
-546 -828 384 0
-546 -829 409 0
-546 -830 434 0
-546 -831 459 0
-546 -832 484 0
-546 -833 509 0
-546 -834 534 0
-546 -835 559 0
-546 -836 584 0
-546 -837 609 0
-546 -838 634 0
-546 -839 659 0
-546 -840 684 0
-546 -841 709 0
-546 -842 734 0
-546 -843 759 0
-546 -844 784 0
-546 -845 809 0
-546 -846 834 0
-546 -847 859 0
-546 -848 884 0
-546 -849 909 0
-546 -850 934 0
-547 -851 334 0
-547 -852 359 0
-547 -853 384 0
-547 -854 409 0
-547 -855 434 0
-547 -856 459 0
-547 -857 484 0
-547 -858 509 0
-547 -859 534 0
-547 -860 559 0
-547 -861 584 0
-547 -862 609 0
-547 -863 634 0
-547 -864 659 0
-547 -865 684 0
-547 -866 709 0
-547 -867 734 0
-547 -868 759 0
-547 -869 784 0
-547 -870 809 0
-547 -871 834 0
-547 -872 859 0
-547 -873 884 0
-547 -874 909 0
-547 -875 934 0
-548 -876 334 0
-548 -877 359 0
-548 -878 384 0
-548 -879 409 0
-548 -880 434 0
-548 -881 459 0
-548 -882 484 0
-548 -883 509 0
-548 -884 534 0
-548 -885 559 0
-548 -886 584 0
-548 -887 609 0
-548 -888 634 0
-548 -889 659 0
-548 -890 684 0
-548 -891 709 0
-548 -892 734 0
-548 -893 759 0
-548 -894 784 0
-548 -895 809 0
-548 -896 834 0
-548 -897 859 0
-548 -898 884 0
-548 -899 909 0
-548 -900 934 0
-549 -901 334 0
-549 -902 359 0
-549 -903 384 0
-549 -904 409 0
-549 -905 434 0
-549 -906 459 0
-549 -907 484 0
-549 -908 509 0
-549 -909 534 0
-549 -910 559 0
-549 -911 584 0
-549 -912 609 0
-549 -913 634 0
-549 -914 659 0
-549 -915 684 0
-549 -916 709 0
-549 -917 734 0
-549 -918 759 0
-549 -919 784 0
-549 -920 809 0
-549 -921 834 0
-549 -922 859 0
-549 -923 884 0
-549 -924 909 0
-549 -925 934 0
-550 -926 334 0
-550 -927 359 0
-550 -928 384 0
-550 -929 409 0
-550 -930 434 0
-550 -931 459 0
-550 -932 484 0
-550 -933 509 0
-550 -934 534 0
-550 -935 559 0
-550 -936 584 0
-550 -937 609 0
-550 -938 634 0
-550 -939 659 0
-550 -940 684 0
-550 -941 709 0
-550 -942 734 0
-550 -943 759 0
-550 -944 784 0
-550 -945 809 0
-550 -946 834 0
-550 -947 859 0
-550 -948 884 0
-550 -949 909 0
-550 -950 934 0
-551 -326 335 0
-551 -327 360 0
-551 -328 385 0
-551 -329 410 0
-551 -330 435 0
-551 -331 460 0
-551 -332 485 0
-551 -333 510 0
-551 -334 535 0
-551 -335 560 0
-551 -336 585 0
-551 -337 610 0
-551 -338 635 0
-551 -339 660 0
-551 -340 685 0
-551 -341 710 0
-551 -342 735 0
-551 -343 760 0
-551 -344 785 0
-551 -345 810 0
-551 -346 835 0
-551 -347 860 0
-551 -348 885 0
-551 -349 910 0
-551 -350 935 0
-552 -351 335 0
-552 -352 360 0
-552 -353 385 0
-552 -354 410 0
-552 -355 435 0
-552 -356 460 0
-552 -357 485 0
-552 -358 510 0
-552 -359 535 0
-552 -360 560 0
-552 -361 585 0
-552 -362 610 0
-552 -363 635 0
-552 -364 660 0
-552 -365 685 0
-552 -366 710 0
-552 -367 735 0
-552 -368 760 0
-552 -369 785 0
-552 -370 810 0
-552 -371 835 0
-552 -372 860 0
-552 -373 885 0
-552 -374 910 0
-552 -375 935 0
-553 -376 335 0
-553 -377 360 0
-553 -378 385 0
-553 -379 410 0
-553 -380 435 0
-553 -381 460 0
-553 -382 485 0
-553 -383 510 0
-553 -384 535 0
-553 -385 560 0
-553 -386 585 0
-553 -387 610 0
-553 -388 635 0
-553 -389 660 0
-553 -390 685 0
-553 -391 710 0
-553 -392 735 0
-553 -393 760 0
-553 -394 785 0
-553 -395 810 0
-553 -396 835 0
-553 -397 860 0
-553 -398 885 0
-553 -399 910 0
-553 -400 935 0
-554 -401 335 0
-554 -402 360 0
-554 -403 385 0
-554 -404 410 0
-554 -405 435 0
-554 -406 460 0
-554 -407 485 0
-554 -408 510 0
-554 -409 535 0
-554 -410 560 0
-554 -411 585 0
-554 -412 610 0
-554 -413 635 0
-554 -414 660 0
-554 -415 685 0
-554 -416 710 0
-554 -417 735 0
-554 -418 760 0
-554 -419 785 0
-554 -420 810 0
-554 -421 835 0
-554 -422 860 0
-554 -423 885 0
-554 -424 910 0
-554 -425 935 0
-555 -426 335 0
-555 -427 360 0
-555 -428 385 0
-555 -429 410 0
-555 -430 435 0
-555 -431 460 0
-555 -432 485 0
-555 -433 510 0
-555 -434 535 0
-555 -435 560 0
-555 -436 585 0
-555 -437 610 0
-555 -438 635 0
-555 -439 660 0
-555 -440 685 0
-555 -441 710 0
-555 -442 735 0
-555 -443 760 0
-555 -444 785 0
-555 -445 810 0
-555 -446 835 0
-555 -447 860 0
-555 -448 885 0
-555 -449 910 0
-555 -450 935 0
-556 -451 335 0
-556 -452 360 0
-556 -453 385 0
-556 -454 410 0
-556 -455 435 0
-556 -456 460 0
-556 -457 485 0
-556 -458 510 0
-556 -459 535 0
-556 -460 560 0
-556 -461 585 0
-556 -462 610 0
-556 -463 635 0
-556 -464 660 0
-556 -465 685 0
-556 -466 710 0
-556 -467 735 0
-556 -468 760 0
-556 -469 785 0
-556 -470 810 0
-556 -471 835 0
-556 -472 860 0
-556 -473 885 0
-556 -474 910 0
-556 -475 935 0
-557 -476 335 0
-557 -477 360 0
-557 -478 385 0
-557 -479 410 0
-557 -480 435 0
-557 -481 460 0
-557 -482 485 0
-557 -483 510 0
-557 -484 535 0
-557 -485 560 0
-557 -486 585 0
-557 -487 610 0
-557 -488 635 0
-557 -489 660 0
-557 -490 685 0
-557 -491 710 0
-557 -492 735 0
-557 -493 760 0
-557 -494 785 0
-557 -495 810 0
-557 -496 835 0
-557 -497 860 0
-557 -498 885 0
-557 -499 910 0
-557 -500 935 0
-558 -501 335 0
-558 -502 360 0
-558 -503 385 0
-558 -504 410 0
-558 -505 435 0
-558 -506 460 0
-558 -507 485 0
-558 -508 510 0
-558 -509 535 0
-558 -510 560 0
-558 -511 585 0
-558 -512 610 0
-558 -513 635 0
-558 -514 660 0
-558 -515 685 0
-558 -516 710 0
-558 -517 735 0
-558 -518 760 0
-558 -519 785 0
-558 -520 810 0
-558 -521 835 0
-558 -522 860 0
-558 -523 885 0
-558 -524 910 0
-558 -525 935 0
-559 -526 335 0
-559 -527 360 0
-559 -528 385 0
-559 -529 410 0
-559 -530 435 0
-559 -531 460 0
-559 -532 485 0
-559 -533 510 0
-559 -534 535 0
-559 -535 560 0
-559 -536 585 0
-559 -537 610 0
-559 -538 635 0
-559 -539 660 0
-559 -540 685 0
-559 -541 710 0
-559 -542 735 0
-559 -543 760 0
-559 -544 785 0
-559 -545 810 0
-559 -546 835 0
-559 -547 860 0
-559 -548 885 0
-559 -549 910 0
-559 -550 935 0
-560 -551 335 0
-560 -552 360 0
-560 -553 385 0
-560 -554 410 0
-560 -555 435 0
-560 -556 460 0
-560 -557 485 0
-560 -558 510 0
-560 -559 535 0
-560 -560 560 0
-560 -561 585 0
-560 -562 610 0
-560 -563 635 0
-560 -564 660 0
-560 -565 685 0
-560 -566 710 0
-560 -567 735 0
-560 -568 760 0
-560 -569 785 0
-560 -570 810 0
-560 -571 835 0
-560 -572 860 0
-560 -573 885 0
-560 -574 910 0
-560 -575 935 0
-561 -576 335 0
-561 -577 360 0
-561 -578 385 0
-561 -579 410 0
-561 -580 435 0
-561 -581 460 0
-561 -582 485 0
-561 -583 510 0
-561 -584 535 0
-561 -585 560 0
-561 -586 585 0
-561 -587 610 0
-561 -588 635 0
-561 -589 660 0
-561 -590 685 0
-561 -591 710 0
-561 -592 735 0
-561 -593 760 0
-561 -594 785 0
-561 -595 810 0
-561 -596 835 0
-561 -597 860 0
-561 -598 885 0
-561 -599 910 0
-561 -600 935 0
-562 -601 335 0
-562 -602 360 0
-562 -603 385 0
-562 -604 410 0
-562 -605 435 0
-562 -606 460 0
-562 -607 485 0
-562 -608 510 0
-562 -609 535 0
-562 -610 560 0
-562 -611 585 0
-562 -612 610 0
-562 -613 635 0
-562 -614 660 0
-562 -615 685 0
-562 -616 710 0
-562 -617 735 0
-562 -618 760 0
-562 -619 785 0
-562 -620 810 0
-562 -621 835 0
-562 -622 860 0
-562 -623 885 0
-562 -624 910 0
-562 -625 935 0
-563 -626 335 0
-563 -627 360 0
-563 -628 385 0
-563 -629 410 0
-563 -630 435 0
-563 -631 460 0
-563 -632 485 0
-563 -633 510 0
-563 -634 535 0
-563 -635 560 0
-563 -636 585 0
-563 -637 610 0
-563 -638 635 0
-563 -639 660 0
-563 -640 685 0
-563 -641 710 0
-563 -642 735 0
-563 -643 760 0
-563 -644 785 0
-563 -645 810 0
-563 -646 835 0
-563 -647 860 0
-563 -648 885 0
-563 -649 910 0
-563 -650 935 0
-564 -651 335 0
-564 -652 360 0
-564 -653 385 0
-564 -654 410 0
-564 -655 435 0
-564 -656 460 0
-564 -657 485 0
-564 -658 510 0
-564 -659 535 0
-564 -660 560 0
-564 -661 585 0
-564 -662 610 0
-564 -663 635 0
-564 -664 660 0
-564 -665 685 0
-564 -666 710 0
-564 -667 735 0
-564 -668 760 0
-564 -669 785 0
-564 -670 810 0
-564 -671 835 0
-564 -672 860 0
-564 -673 885 0
-564 -674 910 0
-564 -675 935 0
-565 -676 335 0
-565 -677 360 0
-565 -678 385 0
-565 -679 410 0
-565 -680 435 0
-565 -681 460 0
-565 -682 485 0
-565 -683 510 0
-565 -684 535 0
-565 -685 560 0
-565 -686 585 0
-565 -687 610 0
-565 -688 635 0
-565 -689 660 0
-565 -690 685 0
-565 -691 710 0
-565 -692 735 0
-565 -693 760 0
-565 -694 785 0
-565 -695 810 0
-565 -696 835 0
-565 -697 860 0
-565 -698 885 0
-565 -699 910 0
-565 -700 935 0
-566 -701 335 0
-566 -702 360 0
-566 -703 385 0
-566 -704 410 0
-566 -705 435 0
-566 -706 460 0
-566 -707 485 0
-566 -708 510 0
-566 -709 535 0
-566 -710 560 0
-566 -711 585 0
-566 -712 610 0
-566 -713 635 0
-566 -714 660 0
-566 -715 685 0
-566 -716 710 0
-566 -717 735 0
-566 -718 760 0
-566 -719 785 0
-566 -720 810 0
-566 -721 835 0
-566 -722 860 0
-566 -723 885 0
-566 -724 910 0
-566 -725 935 0
-567 -726 335 0
-567 -727 360 0
-567 -728 385 0
-567 -729 410 0
-567 -730 435 0
-567 -731 460 0
-567 -732 485 0
-567 -733 510 0
-567 -734 535 0
-567 -735 560 0
-567 -736 585 0
-567 -737 610 0
-567 -738 635 0
-567 -739 660 0
-567 -740 685 0
-567 -741 710 0
-567 -742 735 0
-567 -743 760 0
-567 -744 785 0
-567 -745 810 0
-567 -746 835 0
-567 -747 860 0
-567 -748 885 0
-567 -749 910 0
-567 -750 935 0
-568 -751 335 0
-568 -752 360 0
-568 -753 385 0
-568 -754 410 0
-568 -755 435 0
-568 -756 460 0
-568 -757 485 0
-568 -758 510 0
-568 -759 535 0
-568 -760 560 0
-568 -761 585 0
-568 -762 610 0
-568 -763 635 0
-568 -764 660 0
-568 -765 685 0
-568 -766 710 0
-568 -767 735 0
-568 -768 760 0
-568 -769 785 0
-568 -770 810 0
-568 -771 835 0
-568 -772 860 0
-568 -773 885 0
-568 -774 910 0
-568 -775 935 0
-569 -776 335 0
-569 -777 360 0
-569 -778 385 0
-569 -779 410 0
-569 -780 435 0
-569 -781 460 0
-569 -782 485 0
-569 -783 510 0
-569 -784 535 0
-569 -785 560 0
-569 -786 585 0
-569 -787 610 0
-569 -788 635 0
-569 -789 660 0
-569 -790 685 0
-569 -791 710 0
-569 -792 735 0
-569 -793 760 0
-569 -794 785 0
-569 -795 810 0
-569 -796 835 0
-569 -797 860 0
-569 -798 885 0
-569 -799 910 0
-569 -800 935 0
-570 -801 335 0
-570 -802 360 0
-570 -803 385 0
-570 -804 410 0
-570 -805 435 0
-570 -806 460 0
-570 -807 485 0
-570 -808 510 0
-570 -809 535 0
-570 -810 560 0
-570 -811 585 0
-570 -812 610 0
-570 -813 635 0
-570 -814 660 0
-570 -815 685 0
-570 -816 710 0
-570 -817 735 0
-570 -818 760 0
-570 -819 785 0
-570 -820 810 0
-570 -821 835 0
-570 -822 860 0
-570 -823 885 0
-570 -824 910 0
-570 -825 935 0
-571 -826 335 0
-571 -827 360 0
-571 -828 385 0
-571 -829 410 0
-571 -830 435 0
-571 -831 460 0
-571 -832 485 0
-571 -833 510 0
-571 -834 535 0
-571 -835 560 0
-571 -836 585 0
-571 -837 610 0
-571 -838 635 0
-571 -839 660 0
-571 -840 685 0
-571 -841 710 0
-571 -842 735 0
-571 -843 760 0
-571 -844 785 0
-571 -845 810 0
-571 -846 835 0
-571 -847 860 0
-571 -848 885 0
-571 -849 910 0
-571 -850 935 0
-572 -851 335 0
-572 -852 360 0
-572 -853 385 0
-572 -854 410 0
-572 -855 435 0
-572 -856 460 0
-572 -857 485 0
-572 -858 510 0
-572 -859 535 0
-572 -860 560 0
-572 -861 585 0
-572 -862 610 0
-572 -863 635 0
-572 -864 660 0
-572 -865 685 0
-572 -866 710 0
-572 -867 735 0
-572 -868 760 0
-572 -869 785 0
-572 -870 810 0
-572 -871 835 0
-572 -872 860 0
-572 -873 885 0
-572 -874 910 0
-572 -875 935 0
-573 -876 335 0
-573 -877 360 0
-573 -878 385 0
-573 -879 410 0
-573 -880 435 0
-573 -881 460 0
-573 -882 485 0
-573 -883 510 0
-573 -884 535 0
-573 -885 560 0
-573 -886 585 0
-573 -887 610 0
-573 -888 635 0
-573 -889 660 0
-573 -890 685 0
-573 -891 710 0
-573 -892 735 0
-573 -893 760 0
-573 -894 785 0
-573 -895 810 0
-573 -896 835 0
-573 -897 860 0
-573 -898 885 0
-573 -899 910 0
-573 -900 935 0
-574 -901 335 0
-574 -902 360 0
-574 -903 385 0
-574 -904 410 0
-574 -905 435 0
-574 -906 460 0
-574 -907 485 0
-574 -908 510 0
-574 -909 535 0
-574 -910 560 0
-574 -911 585 0
-574 -912 610 0
-574 -913 635 0
-574 -914 660 0
-574 -915 685 0
-574 -916 710 0
-574 -917 735 0
-574 -918 760 0
-574 -919 785 0
-574 -920 810 0
-574 -921 835 0
-574 -922 860 0
-574 -923 885 0
-574 -924 910 0
-574 -925 935 0
-575 -926 335 0
-575 -927 360 0
-575 -928 385 0
-575 -929 410 0
-575 -930 435 0
-575 -931 460 0
-575 -932 485 0
-575 -933 510 0
-575 -934 535 0
-575 -935 560 0
-575 -936 585 0
-575 -937 610 0
-575 -938 635 0
-575 -939 660 0
-575 -940 685 0
-575 -941 710 0
-575 -942 735 0
-575 -943 760 0
-575 -944 785 0
-575 -945 810 0
-575 -946 835 0
-575 -947 860 0
-575 -948 885 0
-575 -949 910 0
-575 -950 935 0
-576 -326 336 0
-576 -327 361 0
-576 -328 386 0
-576 -329 411 0
-576 -330 436 0
-576 -331 461 0
-576 -332 486 0
-576 -333 511 0
-576 -334 536 0
-576 -335 561 0
-576 -336 586 0
-576 -337 611 0
-576 -338 636 0
-576 -339 661 0
-576 -340 686 0
-576 -341 711 0
-576 -342 736 0
-576 -343 761 0
-576 -344 786 0
-576 -345 811 0
-576 -346 836 0
-576 -347 861 0
-576 -348 886 0
-576 -349 911 0
-576 -350 936 0
-577 -351 336 0
-577 -352 361 0
-577 -353 386 0
-577 -354 411 0
-577 -355 436 0
-577 -356 461 0
-577 -357 486 0
-577 -358 511 0
-577 -359 536 0
-577 -360 561 0
-577 -361 586 0
-577 -362 611 0
-577 -363 636 0
-577 -364 661 0
-577 -365 686 0
-577 -366 711 0
-577 -367 736 0
-577 -368 761 0
-577 -369 786 0
-577 -370 811 0
-577 -371 836 0
-577 -372 861 0
-577 -373 886 0
-577 -374 911 0
-577 -375 936 0
-578 -376 336 0
-578 -377 361 0
-578 -378 386 0
-578 -379 411 0
-578 -380 436 0
-578 -381 461 0
-578 -382 486 0
-578 -383 511 0
-578 -384 536 0
-578 -385 561 0
-578 -386 586 0
-578 -387 611 0
-578 -388 636 0
-578 -389 661 0
-578 -390 686 0
-578 -391 711 0
-578 -392 736 0
-578 -393 761 0
-578 -394 786 0
-578 -395 811 0
-578 -396 836 0
-578 -397 861 0
-578 -398 886 0
-578 -399 911 0
-578 -400 936 0
-579 -401 336 0
-579 -402 361 0
-579 -403 386 0
-579 -404 411 0
-579 -405 436 0
-579 -406 461 0
-579 -407 486 0
-579 -408 511 0
-579 -409 536 0
-579 -410 561 0
-579 -411 586 0
-579 -412 611 0
-579 -413 636 0
-579 -414 661 0
-579 -415 686 0
-579 -416 711 0
-579 -417 736 0
-579 -418 761 0
-579 -419 786 0
-579 -420 811 0
-579 -421 836 0
-579 -422 861 0
-579 -423 886 0
-579 -424 911 0
-579 -425 936 0
-580 -426 336 0
-580 -427 361 0
-580 -428 386 0
-580 -429 411 0
-580 -430 436 0
-580 -431 461 0
-580 -432 486 0
-580 -433 511 0
-580 -434 536 0
-580 -435 561 0
-580 -436 586 0
-580 -437 611 0
-580 -438 636 0
-580 -439 661 0
-580 -440 686 0
-580 -441 711 0
-580 -442 736 0
-580 -443 761 0
-580 -444 786 0
-580 -445 811 0
-580 -446 836 0
-580 -447 861 0
-580 -448 886 0
-580 -449 911 0
-580 -450 936 0
-581 -451 336 0
-581 -452 361 0
-581 -453 386 0
-581 -454 411 0
-581 -455 436 0
-581 -456 461 0
-581 -457 486 0
-581 -458 511 0
-581 -459 536 0
-581 -460 561 0
-581 -461 586 0
-581 -462 611 0
-581 -463 636 0
-581 -464 661 0
-581 -465 686 0
-581 -466 711 0
-581 -467 736 0
-581 -468 761 0
-581 -469 786 0
-581 -470 811 0
-581 -471 836 0
-581 -472 861 0
-581 -473 886 0
-581 -474 911 0
-581 -475 936 0
-582 -476 336 0
-582 -477 361 0
-582 -478 386 0
-582 -479 411 0
-582 -480 436 0
-582 -481 461 0
-582 -482 486 0
-582 -483 511 0
-582 -484 536 0
-582 -485 561 0
-582 -486 586 0
-582 -487 611 0
-582 -488 636 0
-582 -489 661 0
-582 -490 686 0
-582 -491 711 0
-582 -492 736 0
-582 -493 761 0
-582 -494 786 0
-582 -495 811 0
-582 -496 836 0
-582 -497 861 0
-582 -498 886 0
-582 -499 911 0
-582 -500 936 0
-583 -501 336 0
-583 -502 361 0
-583 -503 386 0
-583 -504 411 0
-583 -505 436 0
-583 -506 461 0
-583 -507 486 0
-583 -508 511 0
-583 -509 536 0
-583 -510 561 0
-583 -511 586 0
-583 -512 611 0
-583 -513 636 0
-583 -514 661 0
-583 -515 686 0
-583 -516 711 0
-583 -517 736 0
-583 -518 761 0
-583 -519 786 0
-583 -520 811 0
-583 -521 836 0
-583 -522 861 0
-583 -523 886 0
-583 -524 911 0
-583 -525 936 0
-584 -526 336 0
-584 -527 361 0
-584 -528 386 0
-584 -529 411 0
-584 -530 436 0
-584 -531 461 0
-584 -532 486 0
-584 -533 511 0
-584 -534 536 0
-584 -535 561 0
-584 -536 586 0
-584 -537 611 0
-584 -538 636 0
-584 -539 661 0
-584 -540 686 0
-584 -541 711 0
-584 -542 736 0
-584 -543 761 0
-584 -544 786 0
-584 -545 811 0
-584 -546 836 0
-584 -547 861 0
-584 -548 886 0
-584 -549 911 0
-584 -550 936 0
-585 -551 336 0
-585 -552 361 0
-585 -553 386 0
-585 -554 411 0
-585 -555 436 0
-585 -556 461 0
-585 -557 486 0
-585 -558 511 0
-585 -559 536 0
-585 -560 561 0
-585 -561 586 0
-585 -562 611 0
-585 -563 636 0
-585 -564 661 0
-585 -565 686 0
-585 -566 711 0
-585 -567 736 0
-585 -568 761 0
-585 -569 786 0
-585 -570 811 0
-585 -571 836 0
-585 -572 861 0
-585 -573 886 0
-585 -574 911 0
-585 -575 936 0
-586 -576 336 0
-586 -577 361 0
-586 -578 386 0
-586 -579 411 0
-586 -580 436 0
-586 -581 461 0
-586 -582 486 0
-586 -583 511 0
-586 -584 536 0
-586 -585 561 0
-586 -586 586 0
-586 -587 611 0
-586 -588 636 0
-586 -589 661 0
-586 -590 686 0
-586 -591 711 0
-586 -592 736 0
-586 -593 761 0
-586 -594 786 0
-586 -595 811 0
-586 -596 836 0
-586 -597 861 0
-586 -598 886 0
-586 -599 911 0
-586 -600 936 0
-587 -601 336 0
-587 -602 361 0
-587 -603 386 0
-587 -604 411 0
-587 -605 436 0
-587 -606 461 0
-587 -607 486 0
-587 -608 511 0
-587 -609 536 0
-587 -610 561 0
-587 -611 586 0
-587 -612 611 0
-587 -613 636 0
-587 -614 661 0
-587 -615 686 0
-587 -616 711 0
-587 -617 736 0
-587 -618 761 0
-587 -619 786 0
-587 -620 811 0
-587 -621 836 0
-587 -622 861 0
-587 -623 886 0
-587 -624 911 0
-587 -625 936 0
-588 -626 336 0
-588 -627 361 0
-588 -628 386 0
-588 -629 411 0
-588 -630 436 0
-588 -631 461 0
-588 -632 486 0
-588 -633 511 0
-588 -634 536 0
-588 -635 561 0
-588 -636 586 0
-588 -637 611 0
-588 -638 636 0
-588 -639 661 0
-588 -640 686 0
-588 -641 711 0
-588 -642 736 0
-588 -643 761 0
-588 -644 786 0
-588 -645 811 0
-588 -646 836 0
-588 -647 861 0
-588 -648 886 0
-588 -649 911 0
-588 -650 936 0
-589 -651 336 0
-589 -652 361 0
-589 -653 386 0
-589 -654 411 0
-589 -655 436 0
-589 -656 461 0
-589 -657 486 0
-589 -658 511 0
-589 -659 536 0
-589 -660 561 0
-589 -661 586 0
-589 -662 611 0
-589 -663 636 0
-589 -664 661 0
-589 -665 686 0
-589 -666 711 0
-589 -667 736 0
-589 -668 761 0
-589 -669 786 0
-589 -670 811 0
-589 -671 836 0
-589 -672 861 0
-589 -673 886 0
-589 -674 911 0
-589 -675 936 0
-590 -676 336 0
-590 -677 361 0
-590 -678 386 0
-590 -679 411 0
-590 -680 436 0
-590 -681 461 0
-590 -682 486 0
-590 -683 511 0
-590 -684 536 0
-590 -685 561 0
-590 -686 586 0
-590 -687 611 0
-590 -688 636 0
-590 -689 661 0
-590 -690 686 0
-590 -691 711 0
-590 -692 736 0
-590 -693 761 0
-590 -694 786 0
-590 -695 811 0
-590 -696 836 0
-590 -697 861 0
-590 -698 886 0
-590 -699 911 0
-590 -700 936 0
-591 -701 336 0
-591 -702 361 0
-591 -703 386 0
-591 -704 411 0
-591 -705 436 0
-591 -706 461 0
-591 -707 486 0
-591 -708 511 0
-591 -709 536 0
-591 -710 561 0
-591 -711 586 0
-591 -712 611 0
-591 -713 636 0
-591 -714 661 0
-591 -715 686 0
-591 -716 711 0
-591 -717 736 0
-591 -718 761 0
-591 -719 786 0
-591 -720 811 0
-591 -721 836 0
-591 -722 861 0
-591 -723 886 0
-591 -724 911 0
-591 -725 936 0
-592 -726 336 0
-592 -727 361 0
-592 -728 386 0
-592 -729 411 0
-592 -730 436 0
-592 -731 461 0
-592 -732 486 0
-592 -733 511 0
-592 -734 536 0
-592 -735 561 0
-592 -736 586 0
-592 -737 611 0
-592 -738 636 0
-592 -739 661 0
-592 -740 686 0
-592 -741 711 0
-592 -742 736 0
-592 -743 761 0
-592 -744 786 0
-592 -745 811 0
-592 -746 836 0
-592 -747 861 0
-592 -748 886 0
-592 -749 911 0
-592 -750 936 0
-593 -751 336 0
-593 -752 361 0
-593 -753 386 0
-593 -754 411 0
-593 -755 436 0
-593 -756 461 0
-593 -757 486 0
-593 -758 511 0
-593 -759 536 0
-593 -760 561 0
-593 -761 586 0
-593 -762 611 0
-593 -763 636 0
-593 -764 661 0
-593 -765 686 0
-593 -766 711 0
-593 -767 736 0
-593 -768 761 0
-593 -769 786 0
-593 -770 811 0
-593 -771 836 0
-593 -772 861 0
-593 -773 886 0
-593 -774 911 0
-593 -775 936 0
-594 -776 336 0
-594 -777 361 0
-594 -778 386 0
-594 -779 411 0
-594 -780 436 0
-594 -781 461 0
-594 -782 486 0
-594 -783 511 0
-594 -784 536 0
-594 -785 561 0
-594 -786 586 0
-594 -787 611 0
-594 -788 636 0
-594 -789 661 0
-594 -790 686 0
-594 -791 711 0
-594 -792 736 0
-594 -793 761 0
-594 -794 786 0
-594 -795 811 0
-594 -796 836 0
-594 -797 861 0
-594 -798 886 0
-594 -799 911 0
-594 -800 936 0
-595 -801 336 0
-595 -802 361 0
-595 -803 386 0
-595 -804 411 0
-595 -805 436 0
-595 -806 461 0
-595 -807 486 0
-595 -808 511 0
-595 -809 536 0
-595 -810 561 0
-595 -811 586 0
-595 -812 611 0
-595 -813 636 0
-595 -814 661 0
-595 -815 686 0
-595 -816 711 0
-595 -817 736 0
-595 -818 761 0
-595 -819 786 0
-595 -820 811 0
-595 -821 836 0
-595 -822 861 0
-595 -823 886 0
-595 -824 911 0
-595 -825 936 0
-596 -826 336 0
-596 -827 361 0
-596 -828 386 0
-596 -829 411 0
-596 -830 436 0
-596 -831 461 0
-596 -832 486 0
-596 -833 511 0
-596 -834 536 0
-596 -835 561 0
-596 -836 586 0
-596 -837 611 0
-596 -838 636 0
-596 -839 661 0
-596 -840 686 0
-596 -841 711 0
-596 -842 736 0
-596 -843 761 0
-596 -844 786 0
-596 -845 811 0
-596 -846 836 0
-596 -847 861 0
-596 -848 886 0
-596 -849 911 0
-596 -850 936 0
-597 -851 336 0
-597 -852 361 0
-597 -853 386 0
-597 -854 411 0
-597 -855 436 0
-597 -856 461 0
-597 -857 486 0
-597 -858 511 0
-597 -859 536 0
-597 -860 561 0
-597 -861 586 0
-597 -862 611 0
-597 -863 636 0
-597 -864 661 0
-597 -865 686 0
-597 -866 711 0
-597 -867 736 0
-597 -868 761 0
-597 -869 786 0
-597 -870 811 0
-597 -871 836 0
-597 -872 861 0
-597 -873 886 0
-597 -874 911 0
-597 -875 936 0
-598 -876 336 0
-598 -877 361 0
-598 -878 386 0
-598 -879 411 0
-598 -880 436 0
-598 -881 461 0
-598 -882 486 0
-598 -883 511 0
-598 -884 536 0
-598 -885 561 0
-598 -886 586 0
-598 -887 611 0
-598 -888 636 0
-598 -889 661 0
-598 -890 686 0
-598 -891 711 0
-598 -892 736 0
-598 -893 761 0
-598 -894 786 0
-598 -895 811 0
-598 -896 836 0
-598 -897 861 0
-598 -898 886 0
-598 -899 911 0
-598 -900 936 0
-599 -901 336 0
-599 -902 361 0
-599 -903 386 0
-599 -904 411 0
-599 -905 436 0
-599 -906 461 0
-599 -907 486 0
-599 -908 511 0
-599 -909 536 0
-599 -910 561 0
-599 -911 586 0
-599 -912 611 0
-599 -913 636 0
-599 -914 661 0
-599 -915 686 0
-599 -916 711 0
-599 -917 736 0
-599 -918 761 0
-599 -919 786 0
-599 -920 811 0
-599 -921 836 0
-599 -922 861 0
-599 -923 886 0
-599 -924 911 0
-599 -925 936 0
-600 -926 336 0
-600 -927 361 0
-600 -928 386 0
-600 -929 411 0
-600 -930 436 0
-600 -931 461 0
-600 -932 486 0
-600 -933 511 0
-600 -934 536 0
-600 -935 561 0
-600 -936 586 0
-600 -937 611 0
-600 -938 636 0
-600 -939 661 0
-600 -940 686 0
-600 -941 711 0
-600 -942 736 0
-600 -943 761 0
-600 -944 786 0
-600 -945 811 0
-600 -946 836 0
-600 -947 861 0
-600 -948 886 0
-600 -949 911 0
-600 -950 936 0
-601 -326 337 0
-601 -327 362 0
-601 -328 387 0
-601 -329 412 0
-601 -330 437 0
-601 -331 462 0
-601 -332 487 0
-601 -333 512 0
-601 -334 537 0
-601 -335 562 0
-601 -336 587 0
-601 -337 612 0
-601 -338 637 0
-601 -339 662 0
-601 -340 687 0
-601 -341 712 0
-601 -342 737 0
-601 -343 762 0
-601 -344 787 0
-601 -345 812 0
-601 -346 837 0
-601 -347 862 0
-601 -348 887 0
-601 -349 912 0
-601 -350 937 0
-602 -351 337 0
-602 -352 362 0
-602 -353 387 0
-602 -354 412 0
-602 -355 437 0
-602 -356 462 0
-602 -357 487 0
-602 -358 512 0
-602 -359 537 0
-602 -360 562 0
-602 -361 587 0
-602 -362 612 0
-602 -363 637 0
-602 -364 662 0
-602 -365 687 0
-602 -366 712 0
-602 -367 737 0
-602 -368 762 0
-602 -369 787 0
-602 -370 812 0
-602 -371 837 0
-602 -372 862 0
-602 -373 887 0
-602 -374 912 0
-602 -375 937 0
-603 -376 337 0
-603 -377 362 0
-603 -378 387 0
-603 -379 412 0
-603 -380 437 0
-603 -381 462 0
-603 -382 487 0
-603 -383 512 0
-603 -384 537 0
-603 -385 562 0
-603 -386 587 0
-603 -387 612 0
-603 -388 637 0
-603 -389 662 0
-603 -390 687 0
-603 -391 712 0
-603 -392 737 0
-603 -393 762 0
-603 -394 787 0
-603 -395 812 0
-603 -396 837 0
-603 -397 862 0
-603 -398 887 0
-603 -399 912 0
-603 -400 937 0
-604 -401 337 0
-604 -402 362 0
-604 -403 387 0
-604 -404 412 0
-604 -405 437 0
-604 -406 462 0
-604 -407 487 0
-604 -408 512 0
-604 -409 537 0
-604 -410 562 0
-604 -411 587 0
-604 -412 612 0
-604 -413 637 0
-604 -414 662 0
-604 -415 687 0
-604 -416 712 0
-604 -417 737 0
-604 -418 762 0
-604 -419 787 0
-604 -420 812 0
-604 -421 837 0
-604 -422 862 0
-604 -423 887 0
-604 -424 912 0
-604 -425 937 0
-605 -426 337 0
-605 -427 362 0
-605 -428 387 0
-605 -429 412 0
-605 -430 437 0
-605 -431 462 0
-605 -432 487 0
-605 -433 512 0
-605 -434 537 0
-605 -435 562 0
-605 -436 587 0
-605 -437 612 0
-605 -438 637 0
-605 -439 662 0
-605 -440 687 0
-605 -441 712 0
-605 -442 737 0
-605 -443 762 0
-605 -444 787 0
-605 -445 812 0
-605 -446 837 0
-605 -447 862 0
-605 -448 887 0
-605 -449 912 0
-605 -450 937 0
-606 -451 337 0
-606 -452 362 0
-606 -453 387 0
-606 -454 412 0
-606 -455 437 0
-606 -456 462 0
-606 -457 487 0
-606 -458 512 0
-606 -459 537 0
-606 -460 562 0
-606 -461 587 0
-606 -462 612 0
-606 -463 637 0
-606 -464 662 0
-606 -465 687 0
-606 -466 712 0
-606 -467 737 0
-606 -468 762 0
-606 -469 787 0
-606 -470 812 0
-606 -471 837 0
-606 -472 862 0
-606 -473 887 0
-606 -474 912 0
-606 -475 937 0
-607 -476 337 0
-607 -477 362 0
-607 -478 387 0
-607 -479 412 0
-607 -480 437 0
-607 -481 462 0
-607 -482 487 0
-607 -483 512 0
-607 -484 537 0
-607 -485 562 0
-607 -486 587 0
-607 -487 612 0
-607 -488 637 0
-607 -489 662 0
-607 -490 687 0
-607 -491 712 0
-607 -492 737 0
-607 -493 762 0
-607 -494 787 0
-607 -495 812 0
-607 -496 837 0
-607 -497 862 0
-607 -498 887 0
-607 -499 912 0
-607 -500 937 0
-608 -501 337 0
-608 -502 362 0
-608 -503 387 0
-608 -504 412 0
-608 -505 437 0
-608 -506 462 0
-608 -507 487 0
-608 -508 512 0
-608 -509 537 0
-608 -510 562 0
-608 -511 587 0
-608 -512 612 0
-608 -513 637 0
-608 -514 662 0
-608 -515 687 0
-608 -516 712 0
-608 -517 737 0
-608 -518 762 0
-608 -519 787 0
-608 -520 812 0
-608 -521 837 0
-608 -522 862 0
-608 -523 887 0
-608 -524 912 0
-608 -525 937 0
-609 -526 337 0
-609 -527 362 0
-609 -528 387 0
-609 -529 412 0
-609 -530 437 0
-609 -531 462 0
-609 -532 487 0
-609 -533 512 0
-609 -534 537 0
-609 -535 562 0
-609 -536 587 0
-609 -537 612 0
-609 -538 637 0
-609 -539 662 0
-609 -540 687 0
-609 -541 712 0
-609 -542 737 0
-609 -543 762 0
-609 -544 787 0
-609 -545 812 0
-609 -546 837 0
-609 -547 862 0
-609 -548 887 0
-609 -549 912 0
-609 -550 937 0
-610 -551 337 0
-610 -552 362 0
-610 -553 387 0
-610 -554 412 0
-610 -555 437 0
-610 -556 462 0
-610 -557 487 0
-610 -558 512 0
-610 -559 537 0
-610 -560 562 0
-610 -561 587 0
-610 -562 612 0
-610 -563 637 0
-610 -564 662 0
-610 -565 687 0
-610 -566 712 0
-610 -567 737 0
-610 -568 762 0
-610 -569 787 0
-610 -570 812 0
-610 -571 837 0
-610 -572 862 0
-610 -573 887 0
-610 -574 912 0
-610 -575 937 0
-611 -576 337 0
-611 -577 362 0
-611 -578 387 0
-611 -579 412 0
-611 -580 437 0
-611 -581 462 0
-611 -582 487 0
-611 -583 512 0
-611 -584 537 0
-611 -585 562 0
-611 -586 587 0
-611 -587 612 0
-611 -588 637 0
-611 -589 662 0
-611 -590 687 0
-611 -591 712 0
-611 -592 737 0
-611 -593 762 0
-611 -594 787 0
-611 -595 812 0
-611 -596 837 0
-611 -597 862 0
-611 -598 887 0
-611 -599 912 0
-611 -600 937 0
-612 -601 337 0
-612 -602 362 0
-612 -603 387 0
-612 -604 412 0
-612 -605 437 0
-612 -606 462 0
-612 -607 487 0
-612 -608 512 0
-612 -609 537 0
-612 -610 562 0
-612 -611 587 0
-612 -612 612 0
-612 -613 637 0
-612 -614 662 0
-612 -615 687 0
-612 -616 712 0
-612 -617 737 0
-612 -618 762 0
-612 -619 787 0
-612 -620 812 0
-612 -621 837 0
-612 -622 862 0
-612 -623 887 0
-612 -624 912 0
-612 -625 937 0
-613 -626 337 0
-613 -627 362 0
-613 -628 387 0
-613 -629 412 0
-613 -630 437 0
-613 -631 462 0
-613 -632 487 0
-613 -633 512 0
-613 -634 537 0
-613 -635 562 0
-613 -636 587 0
-613 -637 612 0
-613 -638 637 0
-613 -639 662 0
-613 -640 687 0
-613 -641 712 0
-613 -642 737 0
-613 -643 762 0
-613 -644 787 0
-613 -645 812 0
-613 -646 837 0
-613 -647 862 0
-613 -648 887 0
-613 -649 912 0
-613 -650 937 0
-614 -651 337 0
-614 -652 362 0
-614 -653 387 0
-614 -654 412 0
-614 -655 437 0
-614 -656 462 0
-614 -657 487 0
-614 -658 512 0
-614 -659 537 0
-614 -660 562 0
-614 -661 587 0
-614 -662 612 0
-614 -663 637 0
-614 -664 662 0
-614 -665 687 0
-614 -666 712 0
-614 -667 737 0
-614 -668 762 0
-614 -669 787 0
-614 -670 812 0
-614 -671 837 0
-614 -672 862 0
-614 -673 887 0
-614 -674 912 0
-614 -675 937 0
-615 -676 337 0
-615 -677 362 0
-615 -678 387 0
-615 -679 412 0
-615 -680 437 0
-615 -681 462 0
-615 -682 487 0
-615 -683 512 0
-615 -684 537 0
-615 -685 562 0
-615 -686 587 0
-615 -687 612 0
-615 -688 637 0
-615 -689 662 0
-615 -690 687 0
-615 -691 712 0
-615 -692 737 0
-615 -693 762 0
-615 -694 787 0
-615 -695 812 0
-615 -696 837 0
-615 -697 862 0
-615 -698 887 0
-615 -699 912 0
-615 -700 937 0
-616 -701 337 0
-616 -702 362 0
-616 -703 387 0
-616 -704 412 0
-616 -705 437 0
-616 -706 462 0
-616 -707 487 0
-616 -708 512 0
-616 -709 537 0
-616 -710 562 0
-616 -711 587 0
-616 -712 612 0
-616 -713 637 0
-616 -714 662 0
-616 -715 687 0
-616 -716 712 0
-616 -717 737 0
-616 -718 762 0
-616 -719 787 0
-616 -720 812 0
-616 -721 837 0
-616 -722 862 0
-616 -723 887 0
-616 -724 912 0
-616 -725 937 0
-617 -726 337 0
-617 -727 362 0
-617 -728 387 0
-617 -729 412 0
-617 -730 437 0
-617 -731 462 0
-617 -732 487 0
-617 -733 512 0
-617 -734 537 0
-617 -735 562 0
-617 -736 587 0
-617 -737 612 0
-617 -738 637 0
-617 -739 662 0
-617 -740 687 0
-617 -741 712 0
-617 -742 737 0
-617 -743 762 0
-617 -744 787 0
-617 -745 812 0
-617 -746 837 0
-617 -747 862 0
-617 -748 887 0
-617 -749 912 0
-617 -750 937 0
-618 -751 337 0
-618 -752 362 0
-618 -753 387 0
-618 -754 412 0
-618 -755 437 0
-618 -756 462 0
-618 -757 487 0
-618 -758 512 0
-618 -759 537 0
-618 -760 562 0
-618 -761 587 0
-618 -762 612 0
-618 -763 637 0
-618 -764 662 0
-618 -765 687 0
-618 -766 712 0
-618 -767 737 0
-618 -768 762 0
-618 -769 787 0
-618 -770 812 0
-618 -771 837 0
-618 -772 862 0
-618 -773 887 0
-618 -774 912 0
-618 -775 937 0
-619 -776 337 0
-619 -777 362 0
-619 -778 387 0
-619 -779 412 0
-619 -780 437 0
-619 -781 462 0
-619 -782 487 0
-619 -783 512 0
-619 -784 537 0
-619 -785 562 0
-619 -786 587 0
-619 -787 612 0
-619 -788 637 0
-619 -789 662 0
-619 -790 687 0
-619 -791 712 0
-619 -792 737 0
-619 -793 762 0
-619 -794 787 0
-619 -795 812 0
-619 -796 837 0
-619 -797 862 0
-619 -798 887 0
-619 -799 912 0
-619 -800 937 0
-620 -801 337 0
-620 -802 362 0
-620 -803 387 0
-620 -804 412 0
-620 -805 437 0
-620 -806 462 0
-620 -807 487 0
-620 -808 512 0
-620 -809 537 0
-620 -810 562 0
-620 -811 587 0
-620 -812 612 0
-620 -813 637 0
-620 -814 662 0
-620 -815 687 0
-620 -816 712 0
-620 -817 737 0
-620 -818 762 0
-620 -819 787 0
-620 -820 812 0
-620 -821 837 0
-620 -822 862 0
-620 -823 887 0
-620 -824 912 0
-620 -825 937 0
-621 -826 337 0
-621 -827 362 0
-621 -828 387 0
-621 -829 412 0
-621 -830 437 0
-621 -831 462 0
-621 -832 487 0
-621 -833 512 0
-621 -834 537 0
-621 -835 562 0
-621 -836 587 0
-621 -837 612 0
-621 -838 637 0
-621 -839 662 0
-621 -840 687 0
-621 -841 712 0
-621 -842 737 0
-621 -843 762 0
-621 -844 787 0
-621 -845 812 0
-621 -846 837 0
-621 -847 862 0
-621 -848 887 0
-621 -849 912 0
-621 -850 937 0
-622 -851 337 0
-622 -852 362 0
-622 -853 387 0
-622 -854 412 0
-622 -855 437 0
-622 -856 462 0
-622 -857 487 0
-622 -858 512 0
-622 -859 537 0
-622 -860 562 0
-622 -861 587 0
-622 -862 612 0
-622 -863 637 0
-622 -864 662 0
-622 -865 687 0
-622 -866 712 0
-622 -867 737 0
-622 -868 762 0
-622 -869 787 0
-622 -870 812 0
-622 -871 837 0
-622 -872 862 0
-622 -873 887 0
-622 -874 912 0
-622 -875 937 0
-623 -876 337 0
-623 -877 362 0
-623 -878 387 0
-623 -879 412 0
-623 -880 437 0
-623 -881 462 0
-623 -882 487 0
-623 -883 512 0
-623 -884 537 0
-623 -885 562 0
-623 -886 587 0
-623 -887 612 0
-623 -888 637 0
-623 -889 662 0
-623 -890 687 0
-623 -891 712 0
-623 -892 737 0
-623 -893 762 0
-623 -894 787 0
-623 -895 812 0
-623 -896 837 0
-623 -897 862 0
-623 -898 887 0
-623 -899 912 0
-623 -900 937 0
-624 -901 337 0
-624 -902 362 0
-624 -903 387 0
-624 -904 412 0
-624 -905 437 0
-624 -906 462 0
-624 -907 487 0
-624 -908 512 0
-624 -909 537 0
-624 -910 562 0
-624 -911 587 0
-624 -912 612 0
-624 -913 637 0
-624 -914 662 0
-624 -915 687 0
-624 -916 712 0
-624 -917 737 0
-624 -918 762 0
-624 -919 787 0
-624 -920 812 0
-624 -921 837 0
-624 -922 862 0
-624 -923 887 0
-624 -924 912 0
-624 -925 937 0
-625 -926 337 0
-625 -927 362 0
-625 -928 387 0
-625 -929 412 0
-625 -930 437 0
-625 -931 462 0
-625 -932 487 0
-625 -933 512 0
-625 -934 537 0
-625 -935 562 0
-625 -936 587 0
-625 -937 612 0
-625 -938 637 0
-625 -939 662 0
-625 -940 687 0
-625 -941 712 0
-625 -942 737 0
-625 -943 762 0
-625 -944 787 0
-625 -945 812 0
-625 -946 837 0
-625 -947 862 0
-625 -948 887 0
-625 -949 912 0
-625 -950 937 0
-626 -326 338 0
-626 -327 363 0
-626 -328 388 0
-626 -329 413 0
-626 -330 438 0
-626 -331 463 0
-626 -332 488 0
-626 -333 513 0
-626 -334 538 0
-626 -335 563 0
-626 -336 588 0
-626 -337 613 0
-626 -338 638 0
-626 -339 663 0
-626 -340 688 0
-626 -341 713 0
-626 -342 738 0
-626 -343 763 0
-626 -344 788 0
-626 -345 813 0
-626 -346 838 0
-626 -347 863 0
-626 -348 888 0
-626 -349 913 0
-626 -350 938 0
-627 -351 338 0
-627 -352 363 0
-627 -353 388 0
-627 -354 413 0
-627 -355 438 0
-627 -356 463 0
-627 -357 488 0
-627 -358 513 0
-627 -359 538 0
-627 -360 563 0
-627 -361 588 0
-627 -362 613 0
-627 -363 638 0
-627 -364 663 0
-627 -365 688 0
-627 -366 713 0
-627 -367 738 0
-627 -368 763 0
-627 -369 788 0
-627 -370 813 0
-627 -371 838 0
-627 -372 863 0
-627 -373 888 0
-627 -374 913 0
-627 -375 938 0
-628 -376 338 0
-628 -377 363 0
-628 -378 388 0
-628 -379 413 0
-628 -380 438 0
-628 -381 463 0
-628 -382 488 0
-628 -383 513 0
-628 -384 538 0
-628 -385 563 0
-628 -386 588 0
-628 -387 613 0
-628 -388 638 0
-628 -389 663 0
-628 -390 688 0
-628 -391 713 0
-628 -392 738 0
-628 -393 763 0
-628 -394 788 0
-628 -395 813 0
-628 -396 838 0
-628 -397 863 0
-628 -398 888 0
-628 -399 913 0
-628 -400 938 0
-629 -401 338 0
-629 -402 363 0
-629 -403 388 0
-629 -404 413 0
-629 -405 438 0
-629 -406 463 0
-629 -407 488 0
-629 -408 513 0
-629 -409 538 0
-629 -410 563 0
-629 -411 588 0
-629 -412 613 0
-629 -413 638 0
-629 -414 663 0
-629 -415 688 0
-629 -416 713 0
-629 -417 738 0
-629 -418 763 0
-629 -419 788 0
-629 -420 813 0
-629 -421 838 0
-629 -422 863 0
-629 -423 888 0
-629 -424 913 0
-629 -425 938 0
-630 -426 338 0
-630 -427 363 0
-630 -428 388 0
-630 -429 413 0
-630 -430 438 0
-630 -431 463 0
-630 -432 488 0
-630 -433 513 0
-630 -434 538 0
-630 -435 563 0
-630 -436 588 0
-630 -437 613 0
-630 -438 638 0
-630 -439 663 0
-630 -440 688 0
-630 -441 713 0
-630 -442 738 0
-630 -443 763 0
-630 -444 788 0
-630 -445 813 0
-630 -446 838 0
-630 -447 863 0
-630 -448 888 0
-630 -449 913 0
-630 -450 938 0
-631 -451 338 0
-631 -452 363 0
-631 -453 388 0
-631 -454 413 0
-631 -455 438 0
-631 -456 463 0
-631 -457 488 0
-631 -458 513 0
-631 -459 538 0
-631 -460 563 0
-631 -461 588 0
-631 -462 613 0
-631 -463 638 0
-631 -464 663 0
-631 -465 688 0
-631 -466 713 0
-631 -467 738 0
-631 -468 763 0
-631 -469 788 0
-631 -470 813 0
-631 -471 838 0
-631 -472 863 0
-631 -473 888 0
-631 -474 913 0
-631 -475 938 0
-632 -476 338 0
-632 -477 363 0
-632 -478 388 0
-632 -479 413 0
-632 -480 438 0
-632 -481 463 0
-632 -482 488 0
-632 -483 513 0
-632 -484 538 0
-632 -485 563 0
-632 -486 588 0
-632 -487 613 0
-632 -488 638 0
-632 -489 663 0
-632 -490 688 0
-632 -491 713 0
-632 -492 738 0
-632 -493 763 0
-632 -494 788 0
-632 -495 813 0
-632 -496 838 0
-632 -497 863 0
-632 -498 888 0
-632 -499 913 0
-632 -500 938 0
-633 -501 338 0
-633 -502 363 0
-633 -503 388 0
-633 -504 413 0
-633 -505 438 0
-633 -506 463 0
-633 -507 488 0
-633 -508 513 0
-633 -509 538 0
-633 -510 563 0
-633 -511 588 0
-633 -512 613 0
-633 -513 638 0
-633 -514 663 0
-633 -515 688 0
-633 -516 713 0
-633 -517 738 0
-633 -518 763 0
-633 -519 788 0
-633 -520 813 0
-633 -521 838 0
-633 -522 863 0
-633 -523 888 0
-633 -524 913 0
-633 -525 938 0
-634 -526 338 0
-634 -527 363 0
-634 -528 388 0
-634 -529 413 0
-634 -530 438 0
-634 -531 463 0
-634 -532 488 0
-634 -533 513 0
-634 -534 538 0
-634 -535 563 0
-634 -536 588 0
-634 -537 613 0
-634 -538 638 0
-634 -539 663 0
-634 -540 688 0
-634 -541 713 0
-634 -542 738 0
-634 -543 763 0
-634 -544 788 0
-634 -545 813 0
-634 -546 838 0
-634 -547 863 0
-634 -548 888 0
-634 -549 913 0
-634 -550 938 0
-635 -551 338 0
-635 -552 363 0
-635 -553 388 0
-635 -554 413 0
-635 -555 438 0
-635 -556 463 0
-635 -557 488 0
-635 -558 513 0
-635 -559 538 0
-635 -560 563 0
-635 -561 588 0
-635 -562 613 0
-635 -563 638 0
-635 -564 663 0
-635 -565 688 0
-635 -566 713 0
-635 -567 738 0
-635 -568 763 0
-635 -569 788 0
-635 -570 813 0
-635 -571 838 0
-635 -572 863 0
-635 -573 888 0
-635 -574 913 0
-635 -575 938 0
-636 -576 338 0
-636 -577 363 0
-636 -578 388 0
-636 -579 413 0
-636 -580 438 0
-636 -581 463 0
-636 -582 488 0
-636 -583 513 0
-636 -584 538 0
-636 -585 563 0
-636 -586 588 0
-636 -587 613 0
-636 -588 638 0
-636 -589 663 0
-636 -590 688 0
-636 -591 713 0
-636 -592 738 0
-636 -593 763 0
-636 -594 788 0
-636 -595 813 0
-636 -596 838 0
-636 -597 863 0
-636 -598 888 0
-636 -599 913 0
-636 -600 938 0
-637 -601 338 0
-637 -602 363 0
-637 -603 388 0
-637 -604 413 0
-637 -605 438 0
-637 -606 463 0
-637 -607 488 0
-637 -608 513 0
-637 -609 538 0
-637 -610 563 0
-637 -611 588 0
-637 -612 613 0
-637 -613 638 0
-637 -614 663 0
-637 -615 688 0
-637 -616 713 0
-637 -617 738 0
-637 -618 763 0
-637 -619 788 0
-637 -620 813 0
-637 -621 838 0
-637 -622 863 0
-637 -623 888 0
-637 -624 913 0
-637 -625 938 0
-638 -626 338 0
-638 -627 363 0
-638 -628 388 0
-638 -629 413 0
-638 -630 438 0
-638 -631 463 0
-638 -632 488 0
-638 -633 513 0
-638 -634 538 0
-638 -635 563 0
-638 -636 588 0
-638 -637 613 0
-638 -638 638 0
-638 -639 663 0
-638 -640 688 0
-638 -641 713 0
-638 -642 738 0
-638 -643 763 0
-638 -644 788 0
-638 -645 813 0
-638 -646 838 0
-638 -647 863 0
-638 -648 888 0
-638 -649 913 0
-638 -650 938 0
-639 -651 338 0
-639 -652 363 0
-639 -653 388 0
-639 -654 413 0
-639 -655 438 0
-639 -656 463 0
-639 -657 488 0
-639 -658 513 0
-639 -659 538 0
-639 -660 563 0
-639 -661 588 0
-639 -662 613 0
-639 -663 638 0
-639 -664 663 0
-639 -665 688 0
-639 -666 713 0
-639 -667 738 0
-639 -668 763 0
-639 -669 788 0
-639 -670 813 0
-639 -671 838 0
-639 -672 863 0
-639 -673 888 0
-639 -674 913 0
-639 -675 938 0
-640 -676 338 0
-640 -677 363 0
-640 -678 388 0
-640 -679 413 0
-640 -680 438 0
-640 -681 463 0
-640 -682 488 0
-640 -683 513 0
-640 -684 538 0
-640 -685 563 0
-640 -686 588 0
-640 -687 613 0
-640 -688 638 0
-640 -689 663 0
-640 -690 688 0
-640 -691 713 0
-640 -692 738 0
-640 -693 763 0
-640 -694 788 0
-640 -695 813 0
-640 -696 838 0
-640 -697 863 0
-640 -698 888 0
-640 -699 913 0
-640 -700 938 0
-641 -701 338 0
-641 -702 363 0
-641 -703 388 0
-641 -704 413 0
-641 -705 438 0
-641 -706 463 0
-641 -707 488 0
-641 -708 513 0
-641 -709 538 0
-641 -710 563 0
-641 -711 588 0
-641 -712 613 0
-641 -713 638 0
-641 -714 663 0
-641 -715 688 0
-641 -716 713 0
-641 -717 738 0
-641 -718 763 0
-641 -719 788 0
-641 -720 813 0
-641 -721 838 0
-641 -722 863 0
-641 -723 888 0
-641 -724 913 0
-641 -725 938 0
-642 -726 338 0
-642 -727 363 0
-642 -728 388 0
-642 -729 413 0
-642 -730 438 0
-642 -731 463 0
-642 -732 488 0
-642 -733 513 0
-642 -734 538 0
-642 -735 563 0
-642 -736 588 0
-642 -737 613 0
-642 -738 638 0
-642 -739 663 0
-642 -740 688 0
-642 -741 713 0
-642 -742 738 0
-642 -743 763 0
-642 -744 788 0
-642 -745 813 0
-642 -746 838 0
-642 -747 863 0
-642 -748 888 0
-642 -749 913 0
-642 -750 938 0
-643 -751 338 0
-643 -752 363 0
-643 -753 388 0
-643 -754 413 0
-643 -755 438 0
-643 -756 463 0
-643 -757 488 0
-643 -758 513 0
-643 -759 538 0
-643 -760 563 0
-643 -761 588 0
-643 -762 613 0
-643 -763 638 0
-643 -764 663 0
-643 -765 688 0
-643 -766 713 0
-643 -767 738 0
-643 -768 763 0
-643 -769 788 0
-643 -770 813 0
-643 -771 838 0
-643 -772 863 0
-643 -773 888 0
-643 -774 913 0
-643 -775 938 0
-644 -776 338 0
-644 -777 363 0
-644 -778 388 0
-644 -779 413 0
-644 -780 438 0
-644 -781 463 0
-644 -782 488 0
-644 -783 513 0
-644 -784 538 0
-644 -785 563 0
-644 -786 588 0
-644 -787 613 0
-644 -788 638 0
-644 -789 663 0
-644 -790 688 0
-644 -791 713 0
-644 -792 738 0
-644 -793 763 0
-644 -794 788 0
-644 -795 813 0
-644 -796 838 0
-644 -797 863 0
-644 -798 888 0
-644 -799 913 0
-644 -800 938 0
-645 -801 338 0
-645 -802 363 0
-645 -803 388 0
-645 -804 413 0
-645 -805 438 0
-645 -806 463 0
-645 -807 488 0
-645 -808 513 0
-645 -809 538 0
-645 -810 563 0
-645 -811 588 0
-645 -812 613 0
-645 -813 638 0
-645 -814 663 0
-645 -815 688 0
-645 -816 713 0
-645 -817 738 0
-645 -818 763 0
-645 -819 788 0
-645 -820 813 0
-645 -821 838 0
-645 -822 863 0
-645 -823 888 0
-645 -824 913 0
-645 -825 938 0
-646 -826 338 0
-646 -827 363 0
-646 -828 388 0
-646 -829 413 0
-646 -830 438 0
-646 -831 463 0
-646 -832 488 0
-646 -833 513 0
-646 -834 538 0
-646 -835 563 0
-646 -836 588 0
-646 -837 613 0
-646 -838 638 0
-646 -839 663 0
-646 -840 688 0
-646 -841 713 0
-646 -842 738 0
-646 -843 763 0
-646 -844 788 0
-646 -845 813 0
-646 -846 838 0
-646 -847 863 0
-646 -848 888 0
-646 -849 913 0
-646 -850 938 0
-647 -851 338 0
-647 -852 363 0
-647 -853 388 0
-647 -854 413 0
-647 -855 438 0
-647 -856 463 0
-647 -857 488 0
-647 -858 513 0
-647 -859 538 0
-647 -860 563 0
-647 -861 588 0
-647 -862 613 0
-647 -863 638 0
-647 -864 663 0
-647 -865 688 0
-647 -866 713 0
-647 -867 738 0
-647 -868 763 0
-647 -869 788 0
-647 -870 813 0
-647 -871 838 0
-647 -872 863 0
-647 -873 888 0
-647 -874 913 0
-647 -875 938 0
-648 -876 338 0
-648 -877 363 0
-648 -878 388 0
-648 -879 413 0
-648 -880 438 0
-648 -881 463 0
-648 -882 488 0
-648 -883 513 0
-648 -884 538 0
-648 -885 563 0
-648 -886 588 0
-648 -887 613 0
-648 -888 638 0
-648 -889 663 0
-648 -890 688 0
-648 -891 713 0
-648 -892 738 0
-648 -893 763 0
-648 -894 788 0
-648 -895 813 0
-648 -896 838 0
-648 -897 863 0
-648 -898 888 0
-648 -899 913 0
-648 -900 938 0
-649 -901 338 0
-649 -902 363 0
-649 -903 388 0
-649 -904 413 0
-649 -905 438 0
-649 -906 463 0
-649 -907 488 0
-649 -908 513 0
-649 -909 538 0
-649 -910 563 0
-649 -911 588 0
-649 -912 613 0
-649 -913 638 0
-649 -914 663 0
-649 -915 688 0
-649 -916 713 0
-649 -917 738 0
-649 -918 763 0
-649 -919 788 0
-649 -920 813 0
-649 -921 838 0
-649 -922 863 0
-649 -923 888 0
-649 -924 913 0
-649 -925 938 0
-650 -926 338 0
-650 -927 363 0
-650 -928 388 0
-650 -929 413 0
-650 -930 438 0
-650 -931 463 0
-650 -932 488 0
-650 -933 513 0
-650 -934 538 0
-650 -935 563 0
-650 -936 588 0
-650 -937 613 0
-650 -938 638 0
-650 -939 663 0
-650 -940 688 0
-650 -941 713 0
-650 -942 738 0
-650 -943 763 0
-650 -944 788 0
-650 -945 813 0
-650 -946 838 0
-650 -947 863 0
-650 -948 888 0
-650 -949 913 0
-650 -950 938 0
-651 -326 339 0
-651 -327 364 0
-651 -328 389 0
-651 -329 414 0
-651 -330 439 0
-651 -331 464 0
-651 -332 489 0
-651 -333 514 0
-651 -334 539 0
-651 -335 564 0
-651 -336 589 0
-651 -337 614 0
-651 -338 639 0
-651 -339 664 0
-651 -340 689 0
-651 -341 714 0
-651 -342 739 0
-651 -343 764 0
-651 -344 789 0
-651 -345 814 0
-651 -346 839 0
-651 -347 864 0
-651 -348 889 0
-651 -349 914 0
-651 -350 939 0
-652 -351 339 0
-652 -352 364 0
-652 -353 389 0
-652 -354 414 0
-652 -355 439 0
-652 -356 464 0
-652 -357 489 0
-652 -358 514 0
-652 -359 539 0
-652 -360 564 0
-652 -361 589 0
-652 -362 614 0
-652 -363 639 0
-652 -364 664 0
-652 -365 689 0
-652 -366 714 0
-652 -367 739 0
-652 -368 764 0
-652 -369 789 0
-652 -370 814 0
-652 -371 839 0
-652 -372 864 0
-652 -373 889 0
-652 -374 914 0
-652 -375 939 0
-653 -376 339 0
-653 -377 364 0
-653 -378 389 0
-653 -379 414 0
-653 -380 439 0
-653 -381 464 0
-653 -382 489 0
-653 -383 514 0
-653 -384 539 0
-653 -385 564 0
-653 -386 589 0
-653 -387 614 0
-653 -388 639 0
-653 -389 664 0
-653 -390 689 0
-653 -391 714 0
-653 -392 739 0
-653 -393 764 0
-653 -394 789 0
-653 -395 814 0
-653 -396 839 0
-653 -397 864 0
-653 -398 889 0
-653 -399 914 0
-653 -400 939 0
-654 -401 339 0
-654 -402 364 0
-654 -403 389 0
-654 -404 414 0
-654 -405 439 0
-654 -406 464 0
-654 -407 489 0
-654 -408 514 0
-654 -409 539 0
-654 -410 564 0
-654 -411 589 0
-654 -412 614 0
-654 -413 639 0
-654 -414 664 0
-654 -415 689 0
-654 -416 714 0
-654 -417 739 0
-654 -418 764 0
-654 -419 789 0
-654 -420 814 0
-654 -421 839 0
-654 -422 864 0
-654 -423 889 0
-654 -424 914 0
-654 -425 939 0
-655 -426 339 0
-655 -427 364 0
-655 -428 389 0
-655 -429 414 0
-655 -430 439 0
-655 -431 464 0
-655 -432 489 0
-655 -433 514 0
-655 -434 539 0
-655 -435 564 0
-655 -436 589 0
-655 -437 614 0
-655 -438 639 0
-655 -439 664 0
-655 -440 689 0
-655 -441 714 0
-655 -442 739 0
-655 -443 764 0
-655 -444 789 0
-655 -445 814 0
-655 -446 839 0
-655 -447 864 0
-655 -448 889 0
-655 -449 914 0
-655 -450 939 0
-656 -451 339 0
-656 -452 364 0
-656 -453 389 0
-656 -454 414 0
-656 -455 439 0
-656 -456 464 0
-656 -457 489 0
-656 -458 514 0
-656 -459 539 0
-656 -460 564 0
-656 -461 589 0
-656 -462 614 0
-656 -463 639 0
-656 -464 664 0
-656 -465 689 0
-656 -466 714 0
-656 -467 739 0
-656 -468 764 0
-656 -469 789 0
-656 -470 814 0
-656 -471 839 0
-656 -472 864 0
-656 -473 889 0
-656 -474 914 0
-656 -475 939 0
-657 -476 339 0
-657 -477 364 0
-657 -478 389 0
-657 -479 414 0
-657 -480 439 0
-657 -481 464 0
-657 -482 489 0
-657 -483 514 0
-657 -484 539 0
-657 -485 564 0
-657 -486 589 0
-657 -487 614 0
-657 -488 639 0
-657 -489 664 0
-657 -490 689 0
-657 -491 714 0
-657 -492 739 0
-657 -493 764 0
-657 -494 789 0
-657 -495 814 0
-657 -496 839 0
-657 -497 864 0
-657 -498 889 0
-657 -499 914 0
-657 -500 939 0
-658 -501 339 0
-658 -502 364 0
-658 -503 389 0
-658 -504 414 0
-658 -505 439 0
-658 -506 464 0
-658 -507 489 0
-658 -508 514 0
-658 -509 539 0
-658 -510 564 0
-658 -511 589 0
-658 -512 614 0
-658 -513 639 0
-658 -514 664 0
-658 -515 689 0
-658 -516 714 0
-658 -517 739 0
-658 -518 764 0
-658 -519 789 0
-658 -520 814 0
-658 -521 839 0
-658 -522 864 0
-658 -523 889 0
-658 -524 914 0
-658 -525 939 0
-659 -526 339 0
-659 -527 364 0
-659 -528 389 0
-659 -529 414 0
-659 -530 439 0
-659 -531 464 0
-659 -532 489 0
-659 -533 514 0
-659 -534 539 0
-659 -535 564 0
-659 -536 589 0
-659 -537 614 0
-659 -538 639 0
-659 -539 664 0
-659 -540 689 0
-659 -541 714 0
-659 -542 739 0
-659 -543 764 0
-659 -544 789 0
-659 -545 814 0
-659 -546 839 0
-659 -547 864 0
-659 -548 889 0
-659 -549 914 0
-659 -550 939 0
-660 -551 339 0
-660 -552 364 0
-660 -553 389 0
-660 -554 414 0
-660 -555 439 0
-660 -556 464 0
-660 -557 489 0
-660 -558 514 0
-660 -559 539 0
-660 -560 564 0
-660 -561 589 0
-660 -562 614 0
-660 -563 639 0
-660 -564 664 0
-660 -565 689 0
-660 -566 714 0
-660 -567 739 0
-660 -568 764 0
-660 -569 789 0
-660 -570 814 0
-660 -571 839 0
-660 -572 864 0
-660 -573 889 0
-660 -574 914 0
-660 -575 939 0
-661 -576 339 0
-661 -577 364 0
-661 -578 389 0
-661 -579 414 0
-661 -580 439 0
-661 -581 464 0
-661 -582 489 0
-661 -583 514 0
-661 -584 539 0
-661 -585 564 0
-661 -586 589 0
-661 -587 614 0
-661 -588 639 0
-661 -589 664 0
-661 -590 689 0
-661 -591 714 0
-661 -592 739 0
-661 -593 764 0
-661 -594 789 0
-661 -595 814 0
-661 -596 839 0
-661 -597 864 0
-661 -598 889 0
-661 -599 914 0
-661 -600 939 0
-662 -601 339 0
-662 -602 364 0
-662 -603 389 0
-662 -604 414 0
-662 -605 439 0
-662 -606 464 0
-662 -607 489 0
-662 -608 514 0
-662 -609 539 0
-662 -610 564 0
-662 -611 589 0
-662 -612 614 0
-662 -613 639 0
-662 -614 664 0
-662 -615 689 0
-662 -616 714 0
-662 -617 739 0
-662 -618 764 0
-662 -619 789 0
-662 -620 814 0
-662 -621 839 0
-662 -622 864 0
-662 -623 889 0
-662 -624 914 0
-662 -625 939 0
-663 -626 339 0
-663 -627 364 0
-663 -628 389 0
-663 -629 414 0
-663 -630 439 0
-663 -631 464 0
-663 -632 489 0
-663 -633 514 0
-663 -634 539 0
-663 -635 564 0
-663 -636 589 0
-663 -637 614 0
-663 -638 639 0
-663 -639 664 0
-663 -640 689 0
-663 -641 714 0
-663 -642 739 0
-663 -643 764 0
-663 -644 789 0
-663 -645 814 0
-663 -646 839 0
-663 -647 864 0
-663 -648 889 0
-663 -649 914 0
-663 -650 939 0
-664 -651 339 0
-664 -652 364 0
-664 -653 389 0
-664 -654 414 0
-664 -655 439 0
-664 -656 464 0
-664 -657 489 0
-664 -658 514 0
-664 -659 539 0
-664 -660 564 0
-664 -661 589 0
-664 -662 614 0
-664 -663 639 0
-664 -664 664 0
-664 -665 689 0
-664 -666 714 0
-664 -667 739 0
-664 -668 764 0
-664 -669 789 0
-664 -670 814 0
-664 -671 839 0
-664 -672 864 0
-664 -673 889 0
-664 -674 914 0
-664 -675 939 0
-665 -676 339 0
-665 -677 364 0
-665 -678 389 0
-665 -679 414 0
-665 -680 439 0
-665 -681 464 0
-665 -682 489 0
-665 -683 514 0
-665 -684 539 0
-665 -685 564 0
-665 -686 589 0
-665 -687 614 0
-665 -688 639 0
-665 -689 664 0
-665 -690 689 0
-665 -691 714 0
-665 -692 739 0
-665 -693 764 0
-665 -694 789 0
-665 -695 814 0
-665 -696 839 0
-665 -697 864 0
-665 -698 889 0
-665 -699 914 0
-665 -700 939 0
-666 -701 339 0
-666 -702 364 0
-666 -703 389 0
-666 -704 414 0
-666 -705 439 0
-666 -706 464 0
-666 -707 489 0
-666 -708 514 0
-666 -709 539 0
-666 -710 564 0
-666 -711 589 0
-666 -712 614 0
-666 -713 639 0
-666 -714 664 0
-666 -715 689 0
-666 -716 714 0
-666 -717 739 0
-666 -718 764 0
-666 -719 789 0
-666 -720 814 0
-666 -721 839 0
-666 -722 864 0
-666 -723 889 0
-666 -724 914 0
-666 -725 939 0
-667 -726 339 0
-667 -727 364 0
-667 -728 389 0
-667 -729 414 0
-667 -730 439 0
-667 -731 464 0
-667 -732 489 0
-667 -733 514 0
-667 -734 539 0
-667 -735 564 0
-667 -736 589 0
-667 -737 614 0
-667 -738 639 0
-667 -739 664 0
-667 -740 689 0
-667 -741 714 0
-667 -742 739 0
-667 -743 764 0
-667 -744 789 0
-667 -745 814 0
-667 -746 839 0
-667 -747 864 0
-667 -748 889 0
-667 -749 914 0
-667 -750 939 0
-668 -751 339 0
-668 -752 364 0
-668 -753 389 0
-668 -754 414 0
-668 -755 439 0
-668 -756 464 0
-668 -757 489 0
-668 -758 514 0
-668 -759 539 0
-668 -760 564 0
-668 -761 589 0
-668 -762 614 0
-668 -763 639 0
-668 -764 664 0
-668 -765 689 0
-668 -766 714 0
-668 -767 739 0
-668 -768 764 0
-668 -769 789 0
-668 -770 814 0
-668 -771 839 0
-668 -772 864 0
-668 -773 889 0
-668 -774 914 0
-668 -775 939 0
-669 -776 339 0
-669 -777 364 0
-669 -778 389 0
-669 -779 414 0
-669 -780 439 0
-669 -781 464 0
-669 -782 489 0
-669 -783 514 0
-669 -784 539 0
-669 -785 564 0
-669 -786 589 0
-669 -787 614 0
-669 -788 639 0
-669 -789 664 0
-669 -790 689 0
-669 -791 714 0
-669 -792 739 0
-669 -793 764 0
-669 -794 789 0
-669 -795 814 0
-669 -796 839 0
-669 -797 864 0
-669 -798 889 0
-669 -799 914 0
-669 -800 939 0
-670 -801 339 0
-670 -802 364 0
-670 -803 389 0
-670 -804 414 0
-670 -805 439 0
-670 -806 464 0
-670 -807 489 0
-670 -808 514 0
-670 -809 539 0
-670 -810 564 0
-670 -811 589 0
-670 -812 614 0
-670 -813 639 0
-670 -814 664 0
-670 -815 689 0
-670 -816 714 0
-670 -817 739 0
-670 -818 764 0
-670 -819 789 0
-670 -820 814 0
-670 -821 839 0
-670 -822 864 0
-670 -823 889 0
-670 -824 914 0
-670 -825 939 0
-671 -826 339 0
-671 -827 364 0
-671 -828 389 0
-671 -829 414 0
-671 -830 439 0
-671 -831 464 0
-671 -832 489 0
-671 -833 514 0
-671 -834 539 0
-671 -835 564 0
-671 -836 589 0
-671 -837 614 0
-671 -838 639 0
-671 -839 664 0
-671 -840 689 0
-671 -841 714 0
-671 -842 739 0
-671 -843 764 0
-671 -844 789 0
-671 -845 814 0
-671 -846 839 0
-671 -847 864 0
-671 -848 889 0
-671 -849 914 0
-671 -850 939 0
-672 -851 339 0
-672 -852 364 0
-672 -853 389 0
-672 -854 414 0
-672 -855 439 0
-672 -856 464 0
-672 -857 489 0
-672 -858 514 0
-672 -859 539 0
-672 -860 564 0
-672 -861 589 0
-672 -862 614 0
-672 -863 639 0
-672 -864 664 0
-672 -865 689 0
-672 -866 714 0
-672 -867 739 0
-672 -868 764 0
-672 -869 789 0
-672 -870 814 0
-672 -871 839 0
-672 -872 864 0
-672 -873 889 0
-672 -874 914 0
-672 -875 939 0
-673 -876 339 0
-673 -877 364 0
-673 -878 389 0
-673 -879 414 0
-673 -880 439 0
-673 -881 464 0
-673 -882 489 0
-673 -883 514 0
-673 -884 539 0
-673 -885 564 0
-673 -886 589 0
-673 -887 614 0
-673 -888 639 0
-673 -889 664 0
-673 -890 689 0
-673 -891 714 0
-673 -892 739 0
-673 -893 764 0
-673 -894 789 0
-673 -895 814 0
-673 -896 839 0
-673 -897 864 0
-673 -898 889 0
-673 -899 914 0
-673 -900 939 0
-674 -901 339 0
-674 -902 364 0
-674 -903 389 0
-674 -904 414 0
-674 -905 439 0
-674 -906 464 0
-674 -907 489 0
-674 -908 514 0
-674 -909 539 0
-674 -910 564 0
-674 -911 589 0
-674 -912 614 0
-674 -913 639 0
-674 -914 664 0
-674 -915 689 0
-674 -916 714 0
-674 -917 739 0
-674 -918 764 0
-674 -919 789 0
-674 -920 814 0
-674 -921 839 0
-674 -922 864 0
-674 -923 889 0
-674 -924 914 0
-674 -925 939 0
-675 -926 339 0
-675 -927 364 0
-675 -928 389 0
-675 -929 414 0
-675 -930 439 0
-675 -931 464 0
-675 -932 489 0
-675 -933 514 0
-675 -934 539 0
-675 -935 564 0
-675 -936 589 0
-675 -937 614 0
-675 -938 639 0
-675 -939 664 0
-675 -940 689 0
-675 -941 714 0
-675 -942 739 0
-675 -943 764 0
-675 -944 789 0
-675 -945 814 0
-675 -946 839 0
-675 -947 864 0
-675 -948 889 0
-675 -949 914 0
-675 -950 939 0
-676 -326 340 0
-676 -327 365 0
-676 -328 390 0
-676 -329 415 0
-676 -330 440 0
-676 -331 465 0
-676 -332 490 0
-676 -333 515 0
-676 -334 540 0
-676 -335 565 0
-676 -336 590 0
-676 -337 615 0
-676 -338 640 0
-676 -339 665 0
-676 -340 690 0
-676 -341 715 0
-676 -342 740 0
-676 -343 765 0
-676 -344 790 0
-676 -345 815 0
-676 -346 840 0
-676 -347 865 0
-676 -348 890 0
-676 -349 915 0
-676 -350 940 0
-677 -351 340 0
-677 -352 365 0
-677 -353 390 0
-677 -354 415 0
-677 -355 440 0
-677 -356 465 0
-677 -357 490 0
-677 -358 515 0
-677 -359 540 0
-677 -360 565 0
-677 -361 590 0
-677 -362 615 0
-677 -363 640 0
-677 -364 665 0
-677 -365 690 0
-677 -366 715 0
-677 -367 740 0
-677 -368 765 0
-677 -369 790 0
-677 -370 815 0
-677 -371 840 0
-677 -372 865 0
-677 -373 890 0
-677 -374 915 0
-677 -375 940 0
-678 -376 340 0
-678 -377 365 0
-678 -378 390 0
-678 -379 415 0
-678 -380 440 0
-678 -381 465 0
-678 -382 490 0
-678 -383 515 0
-678 -384 540 0
-678 -385 565 0
-678 -386 590 0
-678 -387 615 0
-678 -388 640 0
-678 -389 665 0
-678 -390 690 0
-678 -391 715 0
-678 -392 740 0
-678 -393 765 0
-678 -394 790 0
-678 -395 815 0
-678 -396 840 0
-678 -397 865 0
-678 -398 890 0
-678 -399 915 0
-678 -400 940 0
-679 -401 340 0
-679 -402 365 0
-679 -403 390 0
-679 -404 415 0
-679 -405 440 0
-679 -406 465 0
-679 -407 490 0
-679 -408 515 0
-679 -409 540 0
-679 -410 565 0
-679 -411 590 0
-679 -412 615 0
-679 -413 640 0
-679 -414 665 0
-679 -415 690 0
-679 -416 715 0
-679 -417 740 0
-679 -418 765 0
-679 -419 790 0
-679 -420 815 0
-679 -421 840 0
-679 -422 865 0
-679 -423 890 0
-679 -424 915 0
-679 -425 940 0
-680 -426 340 0
-680 -427 365 0
-680 -428 390 0
-680 -429 415 0
-680 -430 440 0
-680 -431 465 0
-680 -432 490 0
-680 -433 515 0
-680 -434 540 0
-680 -435 565 0
-680 -436 590 0
-680 -437 615 0
-680 -438 640 0
-680 -439 665 0
-680 -440 690 0
-680 -441 715 0
-680 -442 740 0
-680 -443 765 0
-680 -444 790 0
-680 -445 815 0
-680 -446 840 0
-680 -447 865 0
-680 -448 890 0
-680 -449 915 0
-680 -450 940 0
-681 -451 340 0
-681 -452 365 0
-681 -453 390 0
-681 -454 415 0
-681 -455 440 0
-681 -456 465 0
-681 -457 490 0
-681 -458 515 0
-681 -459 540 0
-681 -460 565 0
-681 -461 590 0
-681 -462 615 0
-681 -463 640 0
-681 -464 665 0
-681 -465 690 0
-681 -466 715 0
-681 -467 740 0
-681 -468 765 0
-681 -469 790 0
-681 -470 815 0
-681 -471 840 0
-681 -472 865 0
-681 -473 890 0
-681 -474 915 0
-681 -475 940 0
-682 -476 340 0
-682 -477 365 0
-682 -478 390 0
-682 -479 415 0
-682 -480 440 0
-682 -481 465 0
-682 -482 490 0
-682 -483 515 0
-682 -484 540 0
-682 -485 565 0
-682 -486 590 0
-682 -487 615 0
-682 -488 640 0
-682 -489 665 0
-682 -490 690 0
-682 -491 715 0
-682 -492 740 0
-682 -493 765 0
-682 -494 790 0
-682 -495 815 0
-682 -496 840 0
-682 -497 865 0
-682 -498 890 0
-682 -499 915 0
-682 -500 940 0
-683 -501 340 0
-683 -502 365 0
-683 -503 390 0
-683 -504 415 0
-683 -505 440 0
-683 -506 465 0
-683 -507 490 0
-683 -508 515 0
-683 -509 540 0
-683 -510 565 0
-683 -511 590 0
-683 -512 615 0
-683 -513 640 0
-683 -514 665 0
-683 -515 690 0
-683 -516 715 0
-683 -517 740 0
-683 -518 765 0
-683 -519 790 0
-683 -520 815 0
-683 -521 840 0
-683 -522 865 0
-683 -523 890 0
-683 -524 915 0
-683 -525 940 0
-684 -526 340 0
-684 -527 365 0
-684 -528 390 0
-684 -529 415 0
-684 -530 440 0
-684 -531 465 0
-684 -532 490 0
-684 -533 515 0
-684 -534 540 0
-684 -535 565 0
-684 -536 590 0
-684 -537 615 0
-684 -538 640 0
-684 -539 665 0
-684 -540 690 0
-684 -541 715 0
-684 -542 740 0
-684 -543 765 0
-684 -544 790 0
-684 -545 815 0
-684 -546 840 0
-684 -547 865 0
-684 -548 890 0
-684 -549 915 0
-684 -550 940 0
-685 -551 340 0
-685 -552 365 0
-685 -553 390 0
-685 -554 415 0
-685 -555 440 0
-685 -556 465 0
-685 -557 490 0
-685 -558 515 0
-685 -559 540 0
-685 -560 565 0
-685 -561 590 0
-685 -562 615 0
-685 -563 640 0
-685 -564 665 0
-685 -565 690 0
-685 -566 715 0
-685 -567 740 0
-685 -568 765 0
-685 -569 790 0
-685 -570 815 0
-685 -571 840 0
-685 -572 865 0
-685 -573 890 0
-685 -574 915 0
-685 -575 940 0
-686 -576 340 0
-686 -577 365 0
-686 -578 390 0
-686 -579 415 0
-686 -580 440 0
-686 -581 465 0
-686 -582 490 0
-686 -583 515 0
-686 -584 540 0
-686 -585 565 0
-686 -586 590 0
-686 -587 615 0
-686 -588 640 0
-686 -589 665 0
-686 -590 690 0
-686 -591 715 0
-686 -592 740 0
-686 -593 765 0
-686 -594 790 0
-686 -595 815 0
-686 -596 840 0
-686 -597 865 0
-686 -598 890 0
-686 -599 915 0
-686 -600 940 0
-687 -601 340 0
-687 -602 365 0
-687 -603 390 0
-687 -604 415 0
-687 -605 440 0
-687 -606 465 0
-687 -607 490 0
-687 -608 515 0
-687 -609 540 0
-687 -610 565 0
-687 -611 590 0
-687 -612 615 0
-687 -613 640 0
-687 -614 665 0
-687 -615 690 0
-687 -616 715 0
-687 -617 740 0
-687 -618 765 0
-687 -619 790 0
-687 -620 815 0
-687 -621 840 0
-687 -622 865 0
-687 -623 890 0
-687 -624 915 0
-687 -625 940 0
-688 -626 340 0
-688 -627 365 0
-688 -628 390 0
-688 -629 415 0
-688 -630 440 0
-688 -631 465 0
-688 -632 490 0
-688 -633 515 0
-688 -634 540 0
-688 -635 565 0
-688 -636 590 0
-688 -637 615 0
-688 -638 640 0
-688 -639 665 0
-688 -640 690 0
-688 -641 715 0
-688 -642 740 0
-688 -643 765 0
-688 -644 790 0
-688 -645 815 0
-688 -646 840 0
-688 -647 865 0
-688 -648 890 0
-688 -649 915 0
-688 -650 940 0
-689 -651 340 0
-689 -652 365 0
-689 -653 390 0
-689 -654 415 0
-689 -655 440 0
-689 -656 465 0
-689 -657 490 0
-689 -658 515 0
-689 -659 540 0
-689 -660 565 0
-689 -661 590 0
-689 -662 615 0
-689 -663 640 0
-689 -664 665 0
-689 -665 690 0
-689 -666 715 0
-689 -667 740 0
-689 -668 765 0
-689 -669 790 0
-689 -670 815 0
-689 -671 840 0
-689 -672 865 0
-689 -673 890 0
-689 -674 915 0
-689 -675 940 0
-690 -676 340 0
-690 -677 365 0
-690 -678 390 0
-690 -679 415 0
-690 -680 440 0
-690 -681 465 0
-690 -682 490 0
-690 -683 515 0
-690 -684 540 0
-690 -685 565 0
-690 -686 590 0
-690 -687 615 0
-690 -688 640 0
-690 -689 665 0
-690 -690 690 0
-690 -691 715 0
-690 -692 740 0
-690 -693 765 0
-690 -694 790 0
-690 -695 815 0
-690 -696 840 0
-690 -697 865 0
-690 -698 890 0
-690 -699 915 0
-690 -700 940 0
-691 -701 340 0
-691 -702 365 0
-691 -703 390 0
-691 -704 415 0
-691 -705 440 0
-691 -706 465 0
-691 -707 490 0
-691 -708 515 0
-691 -709 540 0
-691 -710 565 0
-691 -711 590 0
-691 -712 615 0
-691 -713 640 0
-691 -714 665 0
-691 -715 690 0
-691 -716 715 0
-691 -717 740 0
-691 -718 765 0
-691 -719 790 0
-691 -720 815 0
-691 -721 840 0
-691 -722 865 0
-691 -723 890 0
-691 -724 915 0
-691 -725 940 0
-692 -726 340 0
-692 -727 365 0
-692 -728 390 0
-692 -729 415 0
-692 -730 440 0
-692 -731 465 0
-692 -732 490 0
-692 -733 515 0
-692 -734 540 0
-692 -735 565 0
-692 -736 590 0
-692 -737 615 0
-692 -738 640 0
-692 -739 665 0
-692 -740 690 0
-692 -741 715 0
-692 -742 740 0
-692 -743 765 0
-692 -744 790 0
-692 -745 815 0
-692 -746 840 0
-692 -747 865 0
-692 -748 890 0
-692 -749 915 0
-692 -750 940 0
-693 -751 340 0
-693 -752 365 0
-693 -753 390 0
-693 -754 415 0
-693 -755 440 0
-693 -756 465 0
-693 -757 490 0
-693 -758 515 0
-693 -759 540 0
-693 -760 565 0
-693 -761 590 0
-693 -762 615 0
-693 -763 640 0
-693 -764 665 0
-693 -765 690 0
-693 -766 715 0
-693 -767 740 0
-693 -768 765 0
-693 -769 790 0
-693 -770 815 0
-693 -771 840 0
-693 -772 865 0
-693 -773 890 0
-693 -774 915 0
-693 -775 940 0
-694 -776 340 0
-694 -777 365 0
-694 -778 390 0
-694 -779 415 0
-694 -780 440 0
-694 -781 465 0
-694 -782 490 0
-694 -783 515 0
-694 -784 540 0
-694 -785 565 0
-694 -786 590 0
-694 -787 615 0
-694 -788 640 0
-694 -789 665 0
-694 -790 690 0
-694 -791 715 0
-694 -792 740 0
-694 -793 765 0
-694 -794 790 0
-694 -795 815 0
-694 -796 840 0
-694 -797 865 0
-694 -798 890 0
-694 -799 915 0
-694 -800 940 0
-695 -801 340 0
-695 -802 365 0
-695 -803 390 0
-695 -804 415 0
-695 -805 440 0
-695 -806 465 0
-695 -807 490 0
-695 -808 515 0
-695 -809 540 0
-695 -810 565 0
-695 -811 590 0
-695 -812 615 0
-695 -813 640 0
-695 -814 665 0
-695 -815 690 0
-695 -816 715 0
-695 -817 740 0
-695 -818 765 0
-695 -819 790 0
-695 -820 815 0
-695 -821 840 0
-695 -822 865 0
-695 -823 890 0
-695 -824 915 0
-695 -825 940 0
-696 -826 340 0
-696 -827 365 0
-696 -828 390 0
-696 -829 415 0
-696 -830 440 0
-696 -831 465 0
-696 -832 490 0
-696 -833 515 0
-696 -834 540 0
-696 -835 565 0
-696 -836 590 0
-696 -837 615 0
-696 -838 640 0
-696 -839 665 0
-696 -840 690 0
-696 -841 715 0
-696 -842 740 0
-696 -843 765 0
-696 -844 790 0
-696 -845 815 0
-696 -846 840 0
-696 -847 865 0
-696 -848 890 0
-696 -849 915 0
-696 -850 940 0
-697 -851 340 0
-697 -852 365 0
-697 -853 390 0
-697 -854 415 0
-697 -855 440 0
-697 -856 465 0
-697 -857 490 0
-697 -858 515 0
-697 -859 540 0
-697 -860 565 0
-697 -861 590 0
-697 -862 615 0
-697 -863 640 0
-697 -864 665 0
-697 -865 690 0
-697 -866 715 0
-697 -867 740 0
-697 -868 765 0
-697 -869 790 0
-697 -870 815 0
-697 -871 840 0
-697 -872 865 0
-697 -873 890 0
-697 -874 915 0
-697 -875 940 0
-698 -876 340 0
-698 -877 365 0
-698 -878 390 0
-698 -879 415 0
-698 -880 440 0
-698 -881 465 0
-698 -882 490 0
-698 -883 515 0
-698 -884 540 0
-698 -885 565 0
-698 -886 590 0
-698 -887 615 0
-698 -888 640 0
-698 -889 665 0
-698 -890 690 0
-698 -891 715 0
-698 -892 740 0
-698 -893 765 0
-698 -894 790 0
-698 -895 815 0
-698 -896 840 0
-698 -897 865 0
-698 -898 890 0
-698 -899 915 0
-698 -900 940 0
-699 -901 340 0
-699 -902 365 0
-699 -903 390 0
-699 -904 415 0
-699 -905 440 0
-699 -906 465 0
-699 -907 490 0
-699 -908 515 0
-699 -909 540 0
-699 -910 565 0
-699 -911 590 0
-699 -912 615 0
-699 -913 640 0
-699 -914 665 0
-699 -915 690 0
-699 -916 715 0
-699 -917 740 0
-699 -918 765 0
-699 -919 790 0
-699 -920 815 0
-699 -921 840 0
-699 -922 865 0
-699 -923 890 0
-699 -924 915 0
-699 -925 940 0
-700 -926 340 0
-700 -927 365 0
-700 -928 390 0
-700 -929 415 0
-700 -930 440 0
-700 -931 465 0
-700 -932 490 0
-700 -933 515 0
-700 -934 540 0
-700 -935 565 0
-700 -936 590 0
-700 -937 615 0
-700 -938 640 0
-700 -939 665 0
-700 -940 690 0
-700 -941 715 0
-700 -942 740 0
-700 -943 765 0
-700 -944 790 0
-700 -945 815 0
-700 -946 840 0
-700 -947 865 0
-700 -948 890 0
-700 -949 915 0
-700 -950 940 0
-701 -326 341 0
-701 -327 366 0
-701 -328 391 0
-701 -329 416 0
-701 -330 441 0
-701 -331 466 0
-701 -332 491 0
-701 -333 516 0
-701 -334 541 0
-701 -335 566 0
-701 -336 591 0
-701 -337 616 0
-701 -338 641 0
-701 -339 666 0
-701 -340 691 0
-701 -341 716 0
-701 -342 741 0
-701 -343 766 0
-701 -344 791 0
-701 -345 816 0
-701 -346 841 0
-701 -347 866 0
-701 -348 891 0
-701 -349 916 0
-701 -350 941 0
-702 -351 341 0
-702 -352 366 0
-702 -353 391 0
-702 -354 416 0
-702 -355 441 0
-702 -356 466 0
-702 -357 491 0
-702 -358 516 0
-702 -359 541 0
-702 -360 566 0
-702 -361 591 0
-702 -362 616 0
-702 -363 641 0
-702 -364 666 0
-702 -365 691 0
-702 -366 716 0
-702 -367 741 0
-702 -368 766 0
-702 -369 791 0
-702 -370 816 0
-702 -371 841 0
-702 -372 866 0
-702 -373 891 0
-702 -374 916 0
-702 -375 941 0
-703 -376 341 0
-703 -377 366 0
-703 -378 391 0
-703 -379 416 0
-703 -380 441 0
-703 -381 466 0
-703 -382 491 0
-703 -383 516 0
-703 -384 541 0
-703 -385 566 0
-703 -386 591 0
-703 -387 616 0
-703 -388 641 0
-703 -389 666 0
-703 -390 691 0
-703 -391 716 0
-703 -392 741 0
-703 -393 766 0
-703 -394 791 0
-703 -395 816 0
-703 -396 841 0
-703 -397 866 0
-703 -398 891 0
-703 -399 916 0
-703 -400 941 0
-704 -401 341 0
-704 -402 366 0
-704 -403 391 0
-704 -404 416 0
-704 -405 441 0
-704 -406 466 0
-704 -407 491 0
-704 -408 516 0
-704 -409 541 0
-704 -410 566 0
-704 -411 591 0
-704 -412 616 0
-704 -413 641 0
-704 -414 666 0
-704 -415 691 0
-704 -416 716 0
-704 -417 741 0
-704 -418 766 0
-704 -419 791 0
-704 -420 816 0
-704 -421 841 0
-704 -422 866 0
-704 -423 891 0
-704 -424 916 0
-704 -425 941 0
-705 -426 341 0
-705 -427 366 0
-705 -428 391 0
-705 -429 416 0
-705 -430 441 0
-705 -431 466 0
-705 -432 491 0
-705 -433 516 0
-705 -434 541 0
-705 -435 566 0
-705 -436 591 0
-705 -437 616 0
-705 -438 641 0
-705 -439 666 0
-705 -440 691 0
-705 -441 716 0
-705 -442 741 0
-705 -443 766 0
-705 -444 791 0
-705 -445 816 0
-705 -446 841 0
-705 -447 866 0
-705 -448 891 0
-705 -449 916 0
-705 -450 941 0
-706 -451 341 0
-706 -452 366 0
-706 -453 391 0
-706 -454 416 0
-706 -455 441 0
-706 -456 466 0
-706 -457 491 0
-706 -458 516 0
-706 -459 541 0
-706 -460 566 0
-706 -461 591 0
-706 -462 616 0
-706 -463 641 0
-706 -464 666 0
-706 -465 691 0
-706 -466 716 0
-706 -467 741 0
-706 -468 766 0
-706 -469 791 0
-706 -470 816 0
-706 -471 841 0
-706 -472 866 0
-706 -473 891 0
-706 -474 916 0
-706 -475 941 0
-707 -476 341 0
-707 -477 366 0
-707 -478 391 0
-707 -479 416 0
-707 -480 441 0
-707 -481 466 0
-707 -482 491 0
-707 -483 516 0
-707 -484 541 0
-707 -485 566 0
-707 -486 591 0
-707 -487 616 0
-707 -488 641 0
-707 -489 666 0
-707 -490 691 0
-707 -491 716 0
-707 -492 741 0
-707 -493 766 0
-707 -494 791 0
-707 -495 816 0
-707 -496 841 0
-707 -497 866 0
-707 -498 891 0
-707 -499 916 0
-707 -500 941 0
-708 -501 341 0
-708 -502 366 0
-708 -503 391 0
-708 -504 416 0
-708 -505 441 0
-708 -506 466 0
-708 -507 491 0
-708 -508 516 0
-708 -509 541 0
-708 -510 566 0
-708 -511 591 0
-708 -512 616 0
-708 -513 641 0
-708 -514 666 0
-708 -515 691 0
-708 -516 716 0
-708 -517 741 0
-708 -518 766 0
-708 -519 791 0
-708 -520 816 0
-708 -521 841 0
-708 -522 866 0
-708 -523 891 0
-708 -524 916 0
-708 -525 941 0
-709 -526 341 0
-709 -527 366 0
-709 -528 391 0
-709 -529 416 0
-709 -530 441 0
-709 -531 466 0
-709 -532 491 0
-709 -533 516 0
-709 -534 541 0
-709 -535 566 0
-709 -536 591 0
-709 -537 616 0
-709 -538 641 0
-709 -539 666 0
-709 -540 691 0
-709 -541 716 0
-709 -542 741 0
-709 -543 766 0
-709 -544 791 0
-709 -545 816 0
-709 -546 841 0
-709 -547 866 0
-709 -548 891 0
-709 -549 916 0
-709 -550 941 0
-710 -551 341 0
-710 -552 366 0
-710 -553 391 0
-710 -554 416 0
-710 -555 441 0
-710 -556 466 0
-710 -557 491 0
-710 -558 516 0
-710 -559 541 0
-710 -560 566 0
-710 -561 591 0
-710 -562 616 0
-710 -563 641 0
-710 -564 666 0
-710 -565 691 0
-710 -566 716 0
-710 -567 741 0
-710 -568 766 0
-710 -569 791 0
-710 -570 816 0
-710 -571 841 0
-710 -572 866 0
-710 -573 891 0
-710 -574 916 0
-710 -575 941 0
-711 -576 341 0
-711 -577 366 0
-711 -578 391 0
-711 -579 416 0
-711 -580 441 0
-711 -581 466 0
-711 -582 491 0
-711 -583 516 0
-711 -584 541 0
-711 -585 566 0
-711 -586 591 0
-711 -587 616 0
-711 -588 641 0
-711 -589 666 0
-711 -590 691 0
-711 -591 716 0
-711 -592 741 0
-711 -593 766 0
-711 -594 791 0
-711 -595 816 0
-711 -596 841 0
-711 -597 866 0
-711 -598 891 0
-711 -599 916 0
-711 -600 941 0
-712 -601 341 0
-712 -602 366 0
-712 -603 391 0
-712 -604 416 0
-712 -605 441 0
-712 -606 466 0
-712 -607 491 0
-712 -608 516 0
-712 -609 541 0
-712 -610 566 0
-712 -611 591 0
-712 -612 616 0
-712 -613 641 0
-712 -614 666 0
-712 -615 691 0
-712 -616 716 0
-712 -617 741 0
-712 -618 766 0
-712 -619 791 0
-712 -620 816 0
-712 -621 841 0
-712 -622 866 0
-712 -623 891 0
-712 -624 916 0
-712 -625 941 0
-713 -626 341 0
-713 -627 366 0
-713 -628 391 0
-713 -629 416 0
-713 -630 441 0
-713 -631 466 0
-713 -632 491 0
-713 -633 516 0
-713 -634 541 0
-713 -635 566 0
-713 -636 591 0
-713 -637 616 0
-713 -638 641 0
-713 -639 666 0
-713 -640 691 0
-713 -641 716 0
-713 -642 741 0
-713 -643 766 0
-713 -644 791 0
-713 -645 816 0
-713 -646 841 0
-713 -647 866 0
-713 -648 891 0
-713 -649 916 0
-713 -650 941 0
-714 -651 341 0
-714 -652 366 0
-714 -653 391 0
-714 -654 416 0
-714 -655 441 0
-714 -656 466 0
-714 -657 491 0
-714 -658 516 0
-714 -659 541 0
-714 -660 566 0
-714 -661 591 0
-714 -662 616 0
-714 -663 641 0
-714 -664 666 0
-714 -665 691 0
-714 -666 716 0
-714 -667 741 0
-714 -668 766 0
-714 -669 791 0
-714 -670 816 0
-714 -671 841 0
-714 -672 866 0
-714 -673 891 0
-714 -674 916 0
-714 -675 941 0
-715 -676 341 0
-715 -677 366 0
-715 -678 391 0
-715 -679 416 0
-715 -680 441 0
-715 -681 466 0
-715 -682 491 0
-715 -683 516 0
-715 -684 541 0
-715 -685 566 0
-715 -686 591 0
-715 -687 616 0
-715 -688 641 0
-715 -689 666 0
-715 -690 691 0
-715 -691 716 0
-715 -692 741 0
-715 -693 766 0
-715 -694 791 0
-715 -695 816 0
-715 -696 841 0
-715 -697 866 0
-715 -698 891 0
-715 -699 916 0
-715 -700 941 0
-716 -701 341 0
-716 -702 366 0
-716 -703 391 0
-716 -704 416 0
-716 -705 441 0
-716 -706 466 0
-716 -707 491 0
-716 -708 516 0
-716 -709 541 0
-716 -710 566 0
-716 -711 591 0
-716 -712 616 0
-716 -713 641 0
-716 -714 666 0
-716 -715 691 0
-716 -716 716 0
-716 -717 741 0
-716 -718 766 0
-716 -719 791 0
-716 -720 816 0
-716 -721 841 0
-716 -722 866 0
-716 -723 891 0
-716 -724 916 0
-716 -725 941 0
-717 -726 341 0
-717 -727 366 0
-717 -728 391 0
-717 -729 416 0
-717 -730 441 0
-717 -731 466 0
-717 -732 491 0
-717 -733 516 0
-717 -734 541 0
-717 -735 566 0
-717 -736 591 0
-717 -737 616 0
-717 -738 641 0
-717 -739 666 0
-717 -740 691 0
-717 -741 716 0
-717 -742 741 0
-717 -743 766 0
-717 -744 791 0
-717 -745 816 0
-717 -746 841 0
-717 -747 866 0
-717 -748 891 0
-717 -749 916 0
-717 -750 941 0
-718 -751 341 0
-718 -752 366 0
-718 -753 391 0
-718 -754 416 0
-718 -755 441 0
-718 -756 466 0
-718 -757 491 0
-718 -758 516 0
-718 -759 541 0
-718 -760 566 0
-718 -761 591 0
-718 -762 616 0
-718 -763 641 0
-718 -764 666 0
-718 -765 691 0
-718 -766 716 0
-718 -767 741 0
-718 -768 766 0
-718 -769 791 0
-718 -770 816 0
-718 -771 841 0
-718 -772 866 0
-718 -773 891 0
-718 -774 916 0
-718 -775 941 0
-719 -776 341 0
-719 -777 366 0
-719 -778 391 0
-719 -779 416 0
-719 -780 441 0
-719 -781 466 0
-719 -782 491 0
-719 -783 516 0
-719 -784 541 0
-719 -785 566 0
-719 -786 591 0
-719 -787 616 0
-719 -788 641 0
-719 -789 666 0
-719 -790 691 0
-719 -791 716 0
-719 -792 741 0
-719 -793 766 0
-719 -794 791 0
-719 -795 816 0
-719 -796 841 0
-719 -797 866 0
-719 -798 891 0
-719 -799 916 0
-719 -800 941 0
-720 -801 341 0
-720 -802 366 0
-720 -803 391 0
-720 -804 416 0
-720 -805 441 0
-720 -806 466 0
-720 -807 491 0
-720 -808 516 0
-720 -809 541 0
-720 -810 566 0
-720 -811 591 0
-720 -812 616 0
-720 -813 641 0
-720 -814 666 0
-720 -815 691 0
-720 -816 716 0
-720 -817 741 0
-720 -818 766 0
-720 -819 791 0
-720 -820 816 0
-720 -821 841 0
-720 -822 866 0
-720 -823 891 0
-720 -824 916 0
-720 -825 941 0
-721 -826 341 0
-721 -827 366 0
-721 -828 391 0
-721 -829 416 0
-721 -830 441 0
-721 -831 466 0
-721 -832 491 0
-721 -833 516 0
-721 -834 541 0
-721 -835 566 0
-721 -836 591 0
-721 -837 616 0
-721 -838 641 0
-721 -839 666 0
-721 -840 691 0
-721 -841 716 0
-721 -842 741 0
-721 -843 766 0
-721 -844 791 0
-721 -845 816 0
-721 -846 841 0
-721 -847 866 0
-721 -848 891 0
-721 -849 916 0
-721 -850 941 0
-722 -851 341 0
-722 -852 366 0
-722 -853 391 0
-722 -854 416 0
-722 -855 441 0
-722 -856 466 0
-722 -857 491 0
-722 -858 516 0
-722 -859 541 0
-722 -860 566 0
-722 -861 591 0
-722 -862 616 0
-722 -863 641 0
-722 -864 666 0
-722 -865 691 0
-722 -866 716 0
-722 -867 741 0
-722 -868 766 0
-722 -869 791 0
-722 -870 816 0
-722 -871 841 0
-722 -872 866 0
-722 -873 891 0
-722 -874 916 0
-722 -875 941 0
-723 -876 341 0
-723 -877 366 0
-723 -878 391 0
-723 -879 416 0
-723 -880 441 0
-723 -881 466 0
-723 -882 491 0
-723 -883 516 0
-723 -884 541 0
-723 -885 566 0
-723 -886 591 0
-723 -887 616 0
-723 -888 641 0
-723 -889 666 0
-723 -890 691 0
-723 -891 716 0
-723 -892 741 0
-723 -893 766 0
-723 -894 791 0
-723 -895 816 0
-723 -896 841 0
-723 -897 866 0
-723 -898 891 0
-723 -899 916 0
-723 -900 941 0
-724 -901 341 0
-724 -902 366 0
-724 -903 391 0
-724 -904 416 0
-724 -905 441 0
-724 -906 466 0
-724 -907 491 0
-724 -908 516 0
-724 -909 541 0
-724 -910 566 0
-724 -911 591 0
-724 -912 616 0
-724 -913 641 0
-724 -914 666 0
-724 -915 691 0
-724 -916 716 0
-724 -917 741 0
-724 -918 766 0
-724 -919 791 0
-724 -920 816 0
-724 -921 841 0
-724 -922 866 0
-724 -923 891 0
-724 -924 916 0
-724 -925 941 0
-725 -926 341 0
-725 -927 366 0
-725 -928 391 0
-725 -929 416 0
-725 -930 441 0
-725 -931 466 0
-725 -932 491 0
-725 -933 516 0
-725 -934 541 0
-725 -935 566 0
-725 -936 591 0
-725 -937 616 0
-725 -938 641 0
-725 -939 666 0
-725 -940 691 0
-725 -941 716 0
-725 -942 741 0
-725 -943 766 0
-725 -944 791 0
-725 -945 816 0
-725 -946 841 0
-725 -947 866 0
-725 -948 891 0
-725 -949 916 0
-725 -950 941 0
-726 -326 342 0
-726 -327 367 0
-726 -328 392 0
-726 -329 417 0
-726 -330 442 0
-726 -331 467 0
-726 -332 492 0
-726 -333 517 0
-726 -334 542 0
-726 -335 567 0
-726 -336 592 0
-726 -337 617 0
-726 -338 642 0
-726 -339 667 0
-726 -340 692 0
-726 -341 717 0
-726 -342 742 0
-726 -343 767 0
-726 -344 792 0
-726 -345 817 0
-726 -346 842 0
-726 -347 867 0
-726 -348 892 0
-726 -349 917 0
-726 -350 942 0
-727 -351 342 0
-727 -352 367 0
-727 -353 392 0
-727 -354 417 0
-727 -355 442 0
-727 -356 467 0
-727 -357 492 0
-727 -358 517 0
-727 -359 542 0
-727 -360 567 0
-727 -361 592 0
-727 -362 617 0
-727 -363 642 0
-727 -364 667 0
-727 -365 692 0
-727 -366 717 0
-727 -367 742 0
-727 -368 767 0
-727 -369 792 0
-727 -370 817 0
-727 -371 842 0
-727 -372 867 0
-727 -373 892 0
-727 -374 917 0
-727 -375 942 0
-728 -376 342 0
-728 -377 367 0
-728 -378 392 0
-728 -379 417 0
-728 -380 442 0
-728 -381 467 0
-728 -382 492 0
-728 -383 517 0
-728 -384 542 0
-728 -385 567 0
-728 -386 592 0
-728 -387 617 0
-728 -388 642 0
-728 -389 667 0
-728 -390 692 0
-728 -391 717 0
-728 -392 742 0
-728 -393 767 0
-728 -394 792 0
-728 -395 817 0
-728 -396 842 0
-728 -397 867 0
-728 -398 892 0
-728 -399 917 0
-728 -400 942 0
-729 -401 342 0
-729 -402 367 0
-729 -403 392 0
-729 -404 417 0
-729 -405 442 0
-729 -406 467 0
-729 -407 492 0
-729 -408 517 0
-729 -409 542 0
-729 -410 567 0
-729 -411 592 0
-729 -412 617 0
-729 -413 642 0
-729 -414 667 0
-729 -415 692 0
-729 -416 717 0
-729 -417 742 0
-729 -418 767 0
-729 -419 792 0
-729 -420 817 0
-729 -421 842 0
-729 -422 867 0
-729 -423 892 0
-729 -424 917 0
-729 -425 942 0
-730 -426 342 0
-730 -427 367 0
-730 -428 392 0
-730 -429 417 0
-730 -430 442 0
-730 -431 467 0
-730 -432 492 0
-730 -433 517 0
-730 -434 542 0
-730 -435 567 0
-730 -436 592 0
-730 -437 617 0
-730 -438 642 0
-730 -439 667 0
-730 -440 692 0
-730 -441 717 0
-730 -442 742 0
-730 -443 767 0
-730 -444 792 0
-730 -445 817 0
-730 -446 842 0
-730 -447 867 0
-730 -448 892 0
-730 -449 917 0
-730 -450 942 0
-731 -451 342 0
-731 -452 367 0
-731 -453 392 0
-731 -454 417 0
-731 -455 442 0
-731 -456 467 0
-731 -457 492 0
-731 -458 517 0
-731 -459 542 0
-731 -460 567 0
-731 -461 592 0
-731 -462 617 0
-731 -463 642 0
-731 -464 667 0
-731 -465 692 0
-731 -466 717 0
-731 -467 742 0
-731 -468 767 0
-731 -469 792 0
-731 -470 817 0
-731 -471 842 0
-731 -472 867 0
-731 -473 892 0
-731 -474 917 0
-731 -475 942 0
-732 -476 342 0
-732 -477 367 0
-732 -478 392 0
-732 -479 417 0
-732 -480 442 0
-732 -481 467 0
-732 -482 492 0
-732 -483 517 0
-732 -484 542 0
-732 -485 567 0
-732 -486 592 0
-732 -487 617 0
-732 -488 642 0
-732 -489 667 0
-732 -490 692 0
-732 -491 717 0
-732 -492 742 0
-732 -493 767 0
-732 -494 792 0
-732 -495 817 0
-732 -496 842 0
-732 -497 867 0
-732 -498 892 0
-732 -499 917 0
-732 -500 942 0
-733 -501 342 0
-733 -502 367 0
-733 -503 392 0
-733 -504 417 0
-733 -505 442 0
-733 -506 467 0
-733 -507 492 0
-733 -508 517 0
-733 -509 542 0
-733 -510 567 0
-733 -511 592 0
-733 -512 617 0
-733 -513 642 0
-733 -514 667 0
-733 -515 692 0
-733 -516 717 0
-733 -517 742 0
-733 -518 767 0
-733 -519 792 0
-733 -520 817 0
-733 -521 842 0
-733 -522 867 0
-733 -523 892 0
-733 -524 917 0
-733 -525 942 0
-734 -526 342 0
-734 -527 367 0
-734 -528 392 0
-734 -529 417 0
-734 -530 442 0
-734 -531 467 0
-734 -532 492 0
-734 -533 517 0
-734 -534 542 0
-734 -535 567 0
-734 -536 592 0
-734 -537 617 0
-734 -538 642 0
-734 -539 667 0
-734 -540 692 0
-734 -541 717 0
-734 -542 742 0
-734 -543 767 0
-734 -544 792 0
-734 -545 817 0
-734 -546 842 0
-734 -547 867 0
-734 -548 892 0
-734 -549 917 0
-734 -550 942 0
-735 -551 342 0
-735 -552 367 0
-735 -553 392 0
-735 -554 417 0
-735 -555 442 0
-735 -556 467 0
-735 -557 492 0
-735 -558 517 0
-735 -559 542 0
-735 -560 567 0
-735 -561 592 0
-735 -562 617 0
-735 -563 642 0
-735 -564 667 0
-735 -565 692 0
-735 -566 717 0
-735 -567 742 0
-735 -568 767 0
-735 -569 792 0
-735 -570 817 0
-735 -571 842 0
-735 -572 867 0
-735 -573 892 0
-735 -574 917 0
-735 -575 942 0
-736 -576 342 0
-736 -577 367 0
-736 -578 392 0
-736 -579 417 0
-736 -580 442 0
-736 -581 467 0
-736 -582 492 0
-736 -583 517 0
-736 -584 542 0
-736 -585 567 0
-736 -586 592 0
-736 -587 617 0
-736 -588 642 0
-736 -589 667 0
-736 -590 692 0
-736 -591 717 0
-736 -592 742 0
-736 -593 767 0
-736 -594 792 0
-736 -595 817 0
-736 -596 842 0
-736 -597 867 0
-736 -598 892 0
-736 -599 917 0
-736 -600 942 0
-737 -601 342 0
-737 -602 367 0
-737 -603 392 0
-737 -604 417 0
-737 -605 442 0
-737 -606 467 0
-737 -607 492 0
-737 -608 517 0
-737 -609 542 0
-737 -610 567 0
-737 -611 592 0
-737 -612 617 0
-737 -613 642 0
-737 -614 667 0
-737 -615 692 0
-737 -616 717 0
-737 -617 742 0
-737 -618 767 0
-737 -619 792 0
-737 -620 817 0
-737 -621 842 0
-737 -622 867 0
-737 -623 892 0
-737 -624 917 0
-737 -625 942 0
-738 -626 342 0
-738 -627 367 0
-738 -628 392 0
-738 -629 417 0
-738 -630 442 0
-738 -631 467 0
-738 -632 492 0
-738 -633 517 0
-738 -634 542 0
-738 -635 567 0
-738 -636 592 0
-738 -637 617 0
-738 -638 642 0
-738 -639 667 0
-738 -640 692 0
-738 -641 717 0
-738 -642 742 0
-738 -643 767 0
-738 -644 792 0
-738 -645 817 0
-738 -646 842 0
-738 -647 867 0
-738 -648 892 0
-738 -649 917 0
-738 -650 942 0
-739 -651 342 0
-739 -652 367 0
-739 -653 392 0
-739 -654 417 0
-739 -655 442 0
-739 -656 467 0
-739 -657 492 0
-739 -658 517 0
-739 -659 542 0
-739 -660 567 0
-739 -661 592 0
-739 -662 617 0
-739 -663 642 0
-739 -664 667 0
-739 -665 692 0
-739 -666 717 0
-739 -667 742 0
-739 -668 767 0
-739 -669 792 0
-739 -670 817 0
-739 -671 842 0
-739 -672 867 0
-739 -673 892 0
-739 -674 917 0
-739 -675 942 0
-740 -676 342 0
-740 -677 367 0
-740 -678 392 0
-740 -679 417 0
-740 -680 442 0
-740 -681 467 0
-740 -682 492 0
-740 -683 517 0
-740 -684 542 0
-740 -685 567 0
-740 -686 592 0
-740 -687 617 0
-740 -688 642 0
-740 -689 667 0
-740 -690 692 0
-740 -691 717 0
-740 -692 742 0
-740 -693 767 0
-740 -694 792 0
-740 -695 817 0
-740 -696 842 0
-740 -697 867 0
-740 -698 892 0
-740 -699 917 0
-740 -700 942 0
-741 -701 342 0
-741 -702 367 0
-741 -703 392 0
-741 -704 417 0
-741 -705 442 0
-741 -706 467 0
-741 -707 492 0
-741 -708 517 0
-741 -709 542 0
-741 -710 567 0
-741 -711 592 0
-741 -712 617 0
-741 -713 642 0
-741 -714 667 0
-741 -715 692 0
-741 -716 717 0
-741 -717 742 0
-741 -718 767 0
-741 -719 792 0
-741 -720 817 0
-741 -721 842 0
-741 -722 867 0
-741 -723 892 0
-741 -724 917 0
-741 -725 942 0
-742 -726 342 0
-742 -727 367 0
-742 -728 392 0
-742 -729 417 0
-742 -730 442 0
-742 -731 467 0
-742 -732 492 0
-742 -733 517 0
-742 -734 542 0
-742 -735 567 0
-742 -736 592 0
-742 -737 617 0
-742 -738 642 0
-742 -739 667 0
-742 -740 692 0
-742 -741 717 0
-742 -742 742 0
-742 -743 767 0
-742 -744 792 0
-742 -745 817 0
-742 -746 842 0
-742 -747 867 0
-742 -748 892 0
-742 -749 917 0
-742 -750 942 0
-743 -751 342 0
-743 -752 367 0
-743 -753 392 0
-743 -754 417 0
-743 -755 442 0
-743 -756 467 0
-743 -757 492 0
-743 -758 517 0
-743 -759 542 0
-743 -760 567 0
-743 -761 592 0
-743 -762 617 0
-743 -763 642 0
-743 -764 667 0
-743 -765 692 0
-743 -766 717 0
-743 -767 742 0
-743 -768 767 0
-743 -769 792 0
-743 -770 817 0
-743 -771 842 0
-743 -772 867 0
-743 -773 892 0
-743 -774 917 0
-743 -775 942 0
-744 -776 342 0
-744 -777 367 0
-744 -778 392 0
-744 -779 417 0
-744 -780 442 0
-744 -781 467 0
-744 -782 492 0
-744 -783 517 0
-744 -784 542 0
-744 -785 567 0
-744 -786 592 0
-744 -787 617 0
-744 -788 642 0
-744 -789 667 0
-744 -790 692 0
-744 -791 717 0
-744 -792 742 0
-744 -793 767 0
-744 -794 792 0
-744 -795 817 0
-744 -796 842 0
-744 -797 867 0
-744 -798 892 0
-744 -799 917 0
-744 -800 942 0
-745 -801 342 0
-745 -802 367 0
-745 -803 392 0
-745 -804 417 0
-745 -805 442 0
-745 -806 467 0
-745 -807 492 0
-745 -808 517 0
-745 -809 542 0
-745 -810 567 0
-745 -811 592 0
-745 -812 617 0
-745 -813 642 0
-745 -814 667 0
-745 -815 692 0
-745 -816 717 0
-745 -817 742 0
-745 -818 767 0
-745 -819 792 0
-745 -820 817 0
-745 -821 842 0
-745 -822 867 0
-745 -823 892 0
-745 -824 917 0
-745 -825 942 0
-746 -826 342 0
-746 -827 367 0
-746 -828 392 0
-746 -829 417 0
-746 -830 442 0
-746 -831 467 0
-746 -832 492 0
-746 -833 517 0
-746 -834 542 0
-746 -835 567 0
-746 -836 592 0
-746 -837 617 0
-746 -838 642 0
-746 -839 667 0
-746 -840 692 0
-746 -841 717 0
-746 -842 742 0
-746 -843 767 0
-746 -844 792 0
-746 -845 817 0
-746 -846 842 0
-746 -847 867 0
-746 -848 892 0
-746 -849 917 0
-746 -850 942 0
-747 -851 342 0
-747 -852 367 0
-747 -853 392 0
-747 -854 417 0
-747 -855 442 0
-747 -856 467 0
-747 -857 492 0
-747 -858 517 0
-747 -859 542 0
-747 -860 567 0
-747 -861 592 0
-747 -862 617 0
-747 -863 642 0
-747 -864 667 0
-747 -865 692 0
-747 -866 717 0
-747 -867 742 0
-747 -868 767 0
-747 -869 792 0
-747 -870 817 0
-747 -871 842 0
-747 -872 867 0
-747 -873 892 0
-747 -874 917 0
-747 -875 942 0
-748 -876 342 0
-748 -877 367 0
-748 -878 392 0
-748 -879 417 0
-748 -880 442 0
-748 -881 467 0
-748 -882 492 0
-748 -883 517 0
-748 -884 542 0
-748 -885 567 0
-748 -886 592 0
-748 -887 617 0
-748 -888 642 0
-748 -889 667 0
-748 -890 692 0
-748 -891 717 0
-748 -892 742 0
-748 -893 767 0
-748 -894 792 0
-748 -895 817 0
-748 -896 842 0
-748 -897 867 0
-748 -898 892 0
-748 -899 917 0
-748 -900 942 0
-749 -901 342 0
-749 -902 367 0
-749 -903 392 0
-749 -904 417 0
-749 -905 442 0
-749 -906 467 0
-749 -907 492 0
-749 -908 517 0
-749 -909 542 0
-749 -910 567 0
-749 -911 592 0
-749 -912 617 0
-749 -913 642 0
-749 -914 667 0
-749 -915 692 0
-749 -916 717 0
-749 -917 742 0
-749 -918 767 0
-749 -919 792 0
-749 -920 817 0
-749 -921 842 0
-749 -922 867 0
-749 -923 892 0
-749 -924 917 0
-749 -925 942 0
-750 -926 342 0
-750 -927 367 0
-750 -928 392 0
-750 -929 417 0
-750 -930 442 0
-750 -931 467 0
-750 -932 492 0
-750 -933 517 0
-750 -934 542 0
-750 -935 567 0
-750 -936 592 0
-750 -937 617 0
-750 -938 642 0
-750 -939 667 0
-750 -940 692 0
-750 -941 717 0
-750 -942 742 0
-750 -943 767 0
-750 -944 792 0
-750 -945 817 0
-750 -946 842 0
-750 -947 867 0
-750 -948 892 0
-750 -949 917 0
-750 -950 942 0
-751 -326 343 0
-751 -327 368 0
-751 -328 393 0
-751 -329 418 0
-751 -330 443 0
-751 -331 468 0
-751 -332 493 0
-751 -333 518 0
-751 -334 543 0
-751 -335 568 0
-751 -336 593 0
-751 -337 618 0
-751 -338 643 0
-751 -339 668 0
-751 -340 693 0
-751 -341 718 0
-751 -342 743 0
-751 -343 768 0
-751 -344 793 0
-751 -345 818 0
-751 -346 843 0
-751 -347 868 0
-751 -348 893 0
-751 -349 918 0
-751 -350 943 0
-752 -351 343 0
-752 -352 368 0
-752 -353 393 0
-752 -354 418 0
-752 -355 443 0
-752 -356 468 0
-752 -357 493 0
-752 -358 518 0
-752 -359 543 0
-752 -360 568 0
-752 -361 593 0
-752 -362 618 0
-752 -363 643 0
-752 -364 668 0
-752 -365 693 0
-752 -366 718 0
-752 -367 743 0
-752 -368 768 0
-752 -369 793 0
-752 -370 818 0
-752 -371 843 0
-752 -372 868 0
-752 -373 893 0
-752 -374 918 0
-752 -375 943 0
-753 -376 343 0
-753 -377 368 0
-753 -378 393 0
-753 -379 418 0
-753 -380 443 0
-753 -381 468 0
-753 -382 493 0
-753 -383 518 0
-753 -384 543 0
-753 -385 568 0
-753 -386 593 0
-753 -387 618 0
-753 -388 643 0
-753 -389 668 0
-753 -390 693 0
-753 -391 718 0
-753 -392 743 0
-753 -393 768 0
-753 -394 793 0
-753 -395 818 0
-753 -396 843 0
-753 -397 868 0
-753 -398 893 0
-753 -399 918 0
-753 -400 943 0
-754 -401 343 0
-754 -402 368 0
-754 -403 393 0
-754 -404 418 0
-754 -405 443 0
-754 -406 468 0
-754 -407 493 0
-754 -408 518 0
-754 -409 543 0
-754 -410 568 0
-754 -411 593 0
-754 -412 618 0
-754 -413 643 0
-754 -414 668 0
-754 -415 693 0
-754 -416 718 0
-754 -417 743 0
-754 -418 768 0
-754 -419 793 0
-754 -420 818 0
-754 -421 843 0
-754 -422 868 0
-754 -423 893 0
-754 -424 918 0
-754 -425 943 0
-755 -426 343 0
-755 -427 368 0
-755 -428 393 0
-755 -429 418 0
-755 -430 443 0
-755 -431 468 0
-755 -432 493 0
-755 -433 518 0
-755 -434 543 0
-755 -435 568 0
-755 -436 593 0
-755 -437 618 0
-755 -438 643 0
-755 -439 668 0
-755 -440 693 0
-755 -441 718 0
-755 -442 743 0
-755 -443 768 0
-755 -444 793 0
-755 -445 818 0
-755 -446 843 0
-755 -447 868 0
-755 -448 893 0
-755 -449 918 0
-755 -450 943 0
-756 -451 343 0
-756 -452 368 0
-756 -453 393 0
-756 -454 418 0
-756 -455 443 0
-756 -456 468 0
-756 -457 493 0
-756 -458 518 0
-756 -459 543 0
-756 -460 568 0
-756 -461 593 0
-756 -462 618 0
-756 -463 643 0
-756 -464 668 0
-756 -465 693 0
-756 -466 718 0
-756 -467 743 0
-756 -468 768 0
-756 -469 793 0
-756 -470 818 0
-756 -471 843 0
-756 -472 868 0
-756 -473 893 0
-756 -474 918 0
-756 -475 943 0
-757 -476 343 0
-757 -477 368 0
-757 -478 393 0
-757 -479 418 0
-757 -480 443 0
-757 -481 468 0
-757 -482 493 0
-757 -483 518 0
-757 -484 543 0
-757 -485 568 0
-757 -486 593 0
-757 -487 618 0
-757 -488 643 0
-757 -489 668 0
-757 -490 693 0
-757 -491 718 0
-757 -492 743 0
-757 -493 768 0
-757 -494 793 0
-757 -495 818 0
-757 -496 843 0
-757 -497 868 0
-757 -498 893 0
-757 -499 918 0
-757 -500 943 0
-758 -501 343 0
-758 -502 368 0
-758 -503 393 0
-758 -504 418 0
-758 -505 443 0
-758 -506 468 0
-758 -507 493 0
-758 -508 518 0
-758 -509 543 0
-758 -510 568 0
-758 -511 593 0
-758 -512 618 0
-758 -513 643 0
-758 -514 668 0
-758 -515 693 0
-758 -516 718 0
-758 -517 743 0
-758 -518 768 0
-758 -519 793 0
-758 -520 818 0
-758 -521 843 0
-758 -522 868 0
-758 -523 893 0
-758 -524 918 0
-758 -525 943 0
-759 -526 343 0
-759 -527 368 0
-759 -528 393 0
-759 -529 418 0
-759 -530 443 0
-759 -531 468 0
-759 -532 493 0
-759 -533 518 0
-759 -534 543 0
-759 -535 568 0
-759 -536 593 0
-759 -537 618 0
-759 -538 643 0
-759 -539 668 0
-759 -540 693 0
-759 -541 718 0
-759 -542 743 0
-759 -543 768 0
-759 -544 793 0
-759 -545 818 0
-759 -546 843 0
-759 -547 868 0
-759 -548 893 0
-759 -549 918 0
-759 -550 943 0
-760 -551 343 0
-760 -552 368 0
-760 -553 393 0
-760 -554 418 0
-760 -555 443 0
-760 -556 468 0
-760 -557 493 0
-760 -558 518 0
-760 -559 543 0
-760 -560 568 0
-760 -561 593 0
-760 -562 618 0
-760 -563 643 0
-760 -564 668 0
-760 -565 693 0
-760 -566 718 0
-760 -567 743 0
-760 -568 768 0
-760 -569 793 0
-760 -570 818 0
-760 -571 843 0
-760 -572 868 0
-760 -573 893 0
-760 -574 918 0
-760 -575 943 0
-761 -576 343 0
-761 -577 368 0
-761 -578 393 0
-761 -579 418 0
-761 -580 443 0
-761 -581 468 0
-761 -582 493 0
-761 -583 518 0
-761 -584 543 0
-761 -585 568 0
-761 -586 593 0
-761 -587 618 0
-761 -588 643 0
-761 -589 668 0
-761 -590 693 0
-761 -591 718 0
-761 -592 743 0
-761 -593 768 0
-761 -594 793 0
-761 -595 818 0
-761 -596 843 0
-761 -597 868 0
-761 -598 893 0
-761 -599 918 0
-761 -600 943 0
-762 -601 343 0
-762 -602 368 0
-762 -603 393 0
-762 -604 418 0
-762 -605 443 0
-762 -606 468 0
-762 -607 493 0
-762 -608 518 0
-762 -609 543 0
-762 -610 568 0
-762 -611 593 0
-762 -612 618 0
-762 -613 643 0
-762 -614 668 0
-762 -615 693 0
-762 -616 718 0
-762 -617 743 0
-762 -618 768 0
-762 -619 793 0
-762 -620 818 0
-762 -621 843 0
-762 -622 868 0
-762 -623 893 0
-762 -624 918 0
-762 -625 943 0
-763 -626 343 0
-763 -627 368 0
-763 -628 393 0
-763 -629 418 0
-763 -630 443 0
-763 -631 468 0
-763 -632 493 0
-763 -633 518 0
-763 -634 543 0
-763 -635 568 0
-763 -636 593 0
-763 -637 618 0
-763 -638 643 0
-763 -639 668 0
-763 -640 693 0
-763 -641 718 0
-763 -642 743 0
-763 -643 768 0
-763 -644 793 0
-763 -645 818 0
-763 -646 843 0
-763 -647 868 0
-763 -648 893 0
-763 -649 918 0
-763 -650 943 0
-764 -651 343 0
-764 -652 368 0
-764 -653 393 0
-764 -654 418 0
-764 -655 443 0
-764 -656 468 0
-764 -657 493 0
-764 -658 518 0
-764 -659 543 0
-764 -660 568 0
-764 -661 593 0
-764 -662 618 0
-764 -663 643 0
-764 -664 668 0
-764 -665 693 0
-764 -666 718 0
-764 -667 743 0
-764 -668 768 0
-764 -669 793 0
-764 -670 818 0
-764 -671 843 0
-764 -672 868 0
-764 -673 893 0
-764 -674 918 0
-764 -675 943 0
-765 -676 343 0
-765 -677 368 0
-765 -678 393 0
-765 -679 418 0
-765 -680 443 0
-765 -681 468 0
-765 -682 493 0
-765 -683 518 0
-765 -684 543 0
-765 -685 568 0
-765 -686 593 0
-765 -687 618 0
-765 -688 643 0
-765 -689 668 0
-765 -690 693 0
-765 -691 718 0
-765 -692 743 0
-765 -693 768 0
-765 -694 793 0
-765 -695 818 0
-765 -696 843 0
-765 -697 868 0
-765 -698 893 0
-765 -699 918 0
-765 -700 943 0
-766 -701 343 0
-766 -702 368 0
-766 -703 393 0
-766 -704 418 0
-766 -705 443 0
-766 -706 468 0
-766 -707 493 0
-766 -708 518 0
-766 -709 543 0
-766 -710 568 0
-766 -711 593 0
-766 -712 618 0
-766 -713 643 0
-766 -714 668 0
-766 -715 693 0
-766 -716 718 0
-766 -717 743 0
-766 -718 768 0
-766 -719 793 0
-766 -720 818 0
-766 -721 843 0
-766 -722 868 0
-766 -723 893 0
-766 -724 918 0
-766 -725 943 0
-767 -726 343 0
-767 -727 368 0
-767 -728 393 0
-767 -729 418 0
-767 -730 443 0
-767 -731 468 0
-767 -732 493 0
-767 -733 518 0
-767 -734 543 0
-767 -735 568 0
-767 -736 593 0
-767 -737 618 0
-767 -738 643 0
-767 -739 668 0
-767 -740 693 0
-767 -741 718 0
-767 -742 743 0
-767 -743 768 0
-767 -744 793 0
-767 -745 818 0
-767 -746 843 0
-767 -747 868 0
-767 -748 893 0
-767 -749 918 0
-767 -750 943 0
-768 -751 343 0
-768 -752 368 0
-768 -753 393 0
-768 -754 418 0
-768 -755 443 0
-768 -756 468 0
-768 -757 493 0
-768 -758 518 0
-768 -759 543 0
-768 -760 568 0
-768 -761 593 0
-768 -762 618 0
-768 -763 643 0
-768 -764 668 0
-768 -765 693 0
-768 -766 718 0
-768 -767 743 0
-768 -768 768 0
-768 -769 793 0
-768 -770 818 0
-768 -771 843 0
-768 -772 868 0
-768 -773 893 0
-768 -774 918 0
-768 -775 943 0
-769 -776 343 0
-769 -777 368 0
-769 -778 393 0
-769 -779 418 0
-769 -780 443 0
-769 -781 468 0
-769 -782 493 0
-769 -783 518 0
-769 -784 543 0
-769 -785 568 0
-769 -786 593 0
-769 -787 618 0
-769 -788 643 0
-769 -789 668 0
-769 -790 693 0
-769 -791 718 0
-769 -792 743 0
-769 -793 768 0
-769 -794 793 0
-769 -795 818 0
-769 -796 843 0
-769 -797 868 0
-769 -798 893 0
-769 -799 918 0
-769 -800 943 0
-770 -801 343 0
-770 -802 368 0
-770 -803 393 0
-770 -804 418 0
-770 -805 443 0
-770 -806 468 0
-770 -807 493 0
-770 -808 518 0
-770 -809 543 0
-770 -810 568 0
-770 -811 593 0
-770 -812 618 0
-770 -813 643 0
-770 -814 668 0
-770 -815 693 0
-770 -816 718 0
-770 -817 743 0
-770 -818 768 0
-770 -819 793 0
-770 -820 818 0
-770 -821 843 0
-770 -822 868 0
-770 -823 893 0
-770 -824 918 0
-770 -825 943 0
-771 -826 343 0
-771 -827 368 0
-771 -828 393 0
-771 -829 418 0
-771 -830 443 0
-771 -831 468 0
-771 -832 493 0
-771 -833 518 0
-771 -834 543 0
-771 -835 568 0
-771 -836 593 0
-771 -837 618 0
-771 -838 643 0
-771 -839 668 0
-771 -840 693 0
-771 -841 718 0
-771 -842 743 0
-771 -843 768 0
-771 -844 793 0
-771 -845 818 0
-771 -846 843 0
-771 -847 868 0
-771 -848 893 0
-771 -849 918 0
-771 -850 943 0
-772 -851 343 0
-772 -852 368 0
-772 -853 393 0
-772 -854 418 0
-772 -855 443 0
-772 -856 468 0
-772 -857 493 0
-772 -858 518 0
-772 -859 543 0
-772 -860 568 0
-772 -861 593 0
-772 -862 618 0
-772 -863 643 0
-772 -864 668 0
-772 -865 693 0
-772 -866 718 0
-772 -867 743 0
-772 -868 768 0
-772 -869 793 0
-772 -870 818 0
-772 -871 843 0
-772 -872 868 0
-772 -873 893 0
-772 -874 918 0
-772 -875 943 0
-773 -876 343 0
-773 -877 368 0
-773 -878 393 0
-773 -879 418 0
-773 -880 443 0
-773 -881 468 0
-773 -882 493 0
-773 -883 518 0
-773 -884 543 0
-773 -885 568 0
-773 -886 593 0
-773 -887 618 0
-773 -888 643 0
-773 -889 668 0
-773 -890 693 0
-773 -891 718 0
-773 -892 743 0
-773 -893 768 0
-773 -894 793 0
-773 -895 818 0
-773 -896 843 0
-773 -897 868 0
-773 -898 893 0
-773 -899 918 0
-773 -900 943 0
-774 -901 343 0
-774 -902 368 0
-774 -903 393 0
-774 -904 418 0
-774 -905 443 0
-774 -906 468 0
-774 -907 493 0
-774 -908 518 0
-774 -909 543 0
-774 -910 568 0
-774 -911 593 0
-774 -912 618 0
-774 -913 643 0
-774 -914 668 0
-774 -915 693 0
-774 -916 718 0
-774 -917 743 0
-774 -918 768 0
-774 -919 793 0
-774 -920 818 0
-774 -921 843 0
-774 -922 868 0
-774 -923 893 0
-774 -924 918 0
-774 -925 943 0
-775 -926 343 0
-775 -927 368 0
-775 -928 393 0
-775 -929 418 0
-775 -930 443 0
-775 -931 468 0
-775 -932 493 0
-775 -933 518 0
-775 -934 543 0
-775 -935 568 0
-775 -936 593 0
-775 -937 618 0
-775 -938 643 0
-775 -939 668 0
-775 -940 693 0
-775 -941 718 0
-775 -942 743 0
-775 -943 768 0
-775 -944 793 0
-775 -945 818 0
-775 -946 843 0
-775 -947 868 0
-775 -948 893 0
-775 -949 918 0
-775 -950 943 0
-776 -326 344 0
-776 -327 369 0
-776 -328 394 0
-776 -329 419 0
-776 -330 444 0
-776 -331 469 0
-776 -332 494 0
-776 -333 519 0
-776 -334 544 0
-776 -335 569 0
-776 -336 594 0
-776 -337 619 0
-776 -338 644 0
-776 -339 669 0
-776 -340 694 0
-776 -341 719 0
-776 -342 744 0
-776 -343 769 0
-776 -344 794 0
-776 -345 819 0
-776 -346 844 0
-776 -347 869 0
-776 -348 894 0
-776 -349 919 0
-776 -350 944 0
-777 -351 344 0
-777 -352 369 0
-777 -353 394 0
-777 -354 419 0
-777 -355 444 0
-777 -356 469 0
-777 -357 494 0
-777 -358 519 0
-777 -359 544 0
-777 -360 569 0
-777 -361 594 0
-777 -362 619 0
-777 -363 644 0
-777 -364 669 0
-777 -365 694 0
-777 -366 719 0
-777 -367 744 0
-777 -368 769 0
-777 -369 794 0
-777 -370 819 0
-777 -371 844 0
-777 -372 869 0
-777 -373 894 0
-777 -374 919 0
-777 -375 944 0
-778 -376 344 0
-778 -377 369 0
-778 -378 394 0
-778 -379 419 0
-778 -380 444 0
-778 -381 469 0
-778 -382 494 0
-778 -383 519 0
-778 -384 544 0
-778 -385 569 0
-778 -386 594 0
-778 -387 619 0
-778 -388 644 0
-778 -389 669 0
-778 -390 694 0
-778 -391 719 0
-778 -392 744 0
-778 -393 769 0
-778 -394 794 0
-778 -395 819 0
-778 -396 844 0
-778 -397 869 0
-778 -398 894 0
-778 -399 919 0
-778 -400 944 0
-779 -401 344 0
-779 -402 369 0
-779 -403 394 0
-779 -404 419 0
-779 -405 444 0
-779 -406 469 0
-779 -407 494 0
-779 -408 519 0
-779 -409 544 0
-779 -410 569 0
-779 -411 594 0
-779 -412 619 0
-779 -413 644 0
-779 -414 669 0
-779 -415 694 0
-779 -416 719 0
-779 -417 744 0
-779 -418 769 0
-779 -419 794 0
-779 -420 819 0
-779 -421 844 0
-779 -422 869 0
-779 -423 894 0
-779 -424 919 0
-779 -425 944 0
-780 -426 344 0
-780 -427 369 0
-780 -428 394 0
-780 -429 419 0
-780 -430 444 0
-780 -431 469 0
-780 -432 494 0
-780 -433 519 0
-780 -434 544 0
-780 -435 569 0
-780 -436 594 0
-780 -437 619 0
-780 -438 644 0
-780 -439 669 0
-780 -440 694 0
-780 -441 719 0
-780 -442 744 0
-780 -443 769 0
-780 -444 794 0
-780 -445 819 0
-780 -446 844 0
-780 -447 869 0
-780 -448 894 0
-780 -449 919 0
-780 -450 944 0
-781 -451 344 0
-781 -452 369 0
-781 -453 394 0
-781 -454 419 0
-781 -455 444 0
-781 -456 469 0
-781 -457 494 0
-781 -458 519 0
-781 -459 544 0
-781 -460 569 0
-781 -461 594 0
-781 -462 619 0
-781 -463 644 0
-781 -464 669 0
-781 -465 694 0
-781 -466 719 0
-781 -467 744 0
-781 -468 769 0
-781 -469 794 0
-781 -470 819 0
-781 -471 844 0
-781 -472 869 0
-781 -473 894 0
-781 -474 919 0
-781 -475 944 0
-782 -476 344 0
-782 -477 369 0
-782 -478 394 0
-782 -479 419 0
-782 -480 444 0
-782 -481 469 0
-782 -482 494 0
-782 -483 519 0
-782 -484 544 0
-782 -485 569 0
-782 -486 594 0
-782 -487 619 0
-782 -488 644 0
-782 -489 669 0
-782 -490 694 0
-782 -491 719 0
-782 -492 744 0
-782 -493 769 0
-782 -494 794 0
-782 -495 819 0
-782 -496 844 0
-782 -497 869 0
-782 -498 894 0
-782 -499 919 0
-782 -500 944 0
-783 -501 344 0
-783 -502 369 0
-783 -503 394 0
-783 -504 419 0
-783 -505 444 0
-783 -506 469 0
-783 -507 494 0
-783 -508 519 0
-783 -509 544 0
-783 -510 569 0
-783 -511 594 0
-783 -512 619 0
-783 -513 644 0
-783 -514 669 0
-783 -515 694 0
-783 -516 719 0
-783 -517 744 0
-783 -518 769 0
-783 -519 794 0
-783 -520 819 0
-783 -521 844 0
-783 -522 869 0
-783 -523 894 0
-783 -524 919 0
-783 -525 944 0
-784 -526 344 0
-784 -527 369 0
-784 -528 394 0
-784 -529 419 0
-784 -530 444 0
-784 -531 469 0
-784 -532 494 0
-784 -533 519 0
-784 -534 544 0
-784 -535 569 0
-784 -536 594 0
-784 -537 619 0
-784 -538 644 0
-784 -539 669 0
-784 -540 694 0
-784 -541 719 0
-784 -542 744 0
-784 -543 769 0
-784 -544 794 0
-784 -545 819 0
-784 -546 844 0
-784 -547 869 0
-784 -548 894 0
-784 -549 919 0
-784 -550 944 0
-785 -551 344 0
-785 -552 369 0
-785 -553 394 0
-785 -554 419 0
-785 -555 444 0
-785 -556 469 0
-785 -557 494 0
-785 -558 519 0
-785 -559 544 0
-785 -560 569 0
-785 -561 594 0
-785 -562 619 0
-785 -563 644 0
-785 -564 669 0
-785 -565 694 0
-785 -566 719 0
-785 -567 744 0
-785 -568 769 0
-785 -569 794 0
-785 -570 819 0
-785 -571 844 0
-785 -572 869 0
-785 -573 894 0
-785 -574 919 0
-785 -575 944 0
-786 -576 344 0
-786 -577 369 0
-786 -578 394 0
-786 -579 419 0
-786 -580 444 0
-786 -581 469 0
-786 -582 494 0
-786 -583 519 0
-786 -584 544 0
-786 -585 569 0
-786 -586 594 0
-786 -587 619 0
-786 -588 644 0
-786 -589 669 0
-786 -590 694 0
-786 -591 719 0
-786 -592 744 0
-786 -593 769 0
-786 -594 794 0
-786 -595 819 0
-786 -596 844 0
-786 -597 869 0
-786 -598 894 0
-786 -599 919 0
-786 -600 944 0
-787 -601 344 0
-787 -602 369 0
-787 -603 394 0
-787 -604 419 0
-787 -605 444 0
-787 -606 469 0
-787 -607 494 0
-787 -608 519 0
-787 -609 544 0
-787 -610 569 0
-787 -611 594 0
-787 -612 619 0
-787 -613 644 0
-787 -614 669 0
-787 -615 694 0
-787 -616 719 0
-787 -617 744 0
-787 -618 769 0
-787 -619 794 0
-787 -620 819 0
-787 -621 844 0
-787 -622 869 0
-787 -623 894 0
-787 -624 919 0
-787 -625 944 0
-788 -626 344 0
-788 -627 369 0
-788 -628 394 0
-788 -629 419 0
-788 -630 444 0
-788 -631 469 0
-788 -632 494 0
-788 -633 519 0
-788 -634 544 0
-788 -635 569 0
-788 -636 594 0
-788 -637 619 0
-788 -638 644 0
-788 -639 669 0
-788 -640 694 0
-788 -641 719 0
-788 -642 744 0
-788 -643 769 0
-788 -644 794 0
-788 -645 819 0
-788 -646 844 0
-788 -647 869 0
-788 -648 894 0
-788 -649 919 0
-788 -650 944 0
-789 -651 344 0
-789 -652 369 0
-789 -653 394 0
-789 -654 419 0
-789 -655 444 0
-789 -656 469 0
-789 -657 494 0
-789 -658 519 0
-789 -659 544 0
-789 -660 569 0
-789 -661 594 0
-789 -662 619 0
-789 -663 644 0
-789 -664 669 0
-789 -665 694 0
-789 -666 719 0
-789 -667 744 0
-789 -668 769 0
-789 -669 794 0
-789 -670 819 0
-789 -671 844 0
-789 -672 869 0
-789 -673 894 0
-789 -674 919 0
-789 -675 944 0
-790 -676 344 0
-790 -677 369 0
-790 -678 394 0
-790 -679 419 0
-790 -680 444 0
-790 -681 469 0
-790 -682 494 0
-790 -683 519 0
-790 -684 544 0
-790 -685 569 0
-790 -686 594 0
-790 -687 619 0
-790 -688 644 0
-790 -689 669 0
-790 -690 694 0
-790 -691 719 0
-790 -692 744 0
-790 -693 769 0
-790 -694 794 0
-790 -695 819 0
-790 -696 844 0
-790 -697 869 0
-790 -698 894 0
-790 -699 919 0
-790 -700 944 0
-791 -701 344 0
-791 -702 369 0
-791 -703 394 0
-791 -704 419 0
-791 -705 444 0
-791 -706 469 0
-791 -707 494 0
-791 -708 519 0
-791 -709 544 0
-791 -710 569 0
-791 -711 594 0
-791 -712 619 0
-791 -713 644 0
-791 -714 669 0
-791 -715 694 0
-791 -716 719 0
-791 -717 744 0
-791 -718 769 0
-791 -719 794 0
-791 -720 819 0
-791 -721 844 0
-791 -722 869 0
-791 -723 894 0
-791 -724 919 0
-791 -725 944 0
-792 -726 344 0
-792 -727 369 0
-792 -728 394 0
-792 -729 419 0
-792 -730 444 0
-792 -731 469 0
-792 -732 494 0
-792 -733 519 0
-792 -734 544 0
-792 -735 569 0
-792 -736 594 0
-792 -737 619 0
-792 -738 644 0
-792 -739 669 0
-792 -740 694 0
-792 -741 719 0
-792 -742 744 0
-792 -743 769 0
-792 -744 794 0
-792 -745 819 0
-792 -746 844 0
-792 -747 869 0
-792 -748 894 0
-792 -749 919 0
-792 -750 944 0
-793 -751 344 0
-793 -752 369 0
-793 -753 394 0
-793 -754 419 0
-793 -755 444 0
-793 -756 469 0
-793 -757 494 0
-793 -758 519 0
-793 -759 544 0
-793 -760 569 0
-793 -761 594 0
-793 -762 619 0
-793 -763 644 0
-793 -764 669 0
-793 -765 694 0
-793 -766 719 0
-793 -767 744 0
-793 -768 769 0
-793 -769 794 0
-793 -770 819 0
-793 -771 844 0
-793 -772 869 0
-793 -773 894 0
-793 -774 919 0
-793 -775 944 0
-794 -776 344 0
-794 -777 369 0
-794 -778 394 0
-794 -779 419 0
-794 -780 444 0
-794 -781 469 0
-794 -782 494 0
-794 -783 519 0
-794 -784 544 0
-794 -785 569 0
-794 -786 594 0
-794 -787 619 0
-794 -788 644 0
-794 -789 669 0
-794 -790 694 0
-794 -791 719 0
-794 -792 744 0
-794 -793 769 0
-794 -794 794 0
-794 -795 819 0
-794 -796 844 0
-794 -797 869 0
-794 -798 894 0
-794 -799 919 0
-794 -800 944 0
-795 -801 344 0
-795 -802 369 0
-795 -803 394 0
-795 -804 419 0
-795 -805 444 0
-795 -806 469 0
-795 -807 494 0
-795 -808 519 0
-795 -809 544 0
-795 -810 569 0
-795 -811 594 0
-795 -812 619 0
-795 -813 644 0
-795 -814 669 0
-795 -815 694 0
-795 -816 719 0
-795 -817 744 0
-795 -818 769 0
-795 -819 794 0
-795 -820 819 0
-795 -821 844 0
-795 -822 869 0
-795 -823 894 0
-795 -824 919 0
-795 -825 944 0
-796 -826 344 0
-796 -827 369 0
-796 -828 394 0
-796 -829 419 0
-796 -830 444 0
-796 -831 469 0
-796 -832 494 0
-796 -833 519 0
-796 -834 544 0
-796 -835 569 0
-796 -836 594 0
-796 -837 619 0
-796 -838 644 0
-796 -839 669 0
-796 -840 694 0
-796 -841 719 0
-796 -842 744 0
-796 -843 769 0
-796 -844 794 0
-796 -845 819 0
-796 -846 844 0
-796 -847 869 0
-796 -848 894 0
-796 -849 919 0
-796 -850 944 0
-797 -851 344 0
-797 -852 369 0
-797 -853 394 0
-797 -854 419 0
-797 -855 444 0
-797 -856 469 0
-797 -857 494 0
-797 -858 519 0
-797 -859 544 0
-797 -860 569 0
-797 -861 594 0
-797 -862 619 0
-797 -863 644 0
-797 -864 669 0
-797 -865 694 0
-797 -866 719 0
-797 -867 744 0
-797 -868 769 0
-797 -869 794 0
-797 -870 819 0
-797 -871 844 0
-797 -872 869 0
-797 -873 894 0
-797 -874 919 0
-797 -875 944 0
-798 -876 344 0
-798 -877 369 0
-798 -878 394 0
-798 -879 419 0
-798 -880 444 0
-798 -881 469 0
-798 -882 494 0
-798 -883 519 0
-798 -884 544 0
-798 -885 569 0
-798 -886 594 0
-798 -887 619 0
-798 -888 644 0
-798 -889 669 0
-798 -890 694 0
-798 -891 719 0
-798 -892 744 0
-798 -893 769 0
-798 -894 794 0
-798 -895 819 0
-798 -896 844 0
-798 -897 869 0
-798 -898 894 0
-798 -899 919 0
-798 -900 944 0
-799 -901 344 0
-799 -902 369 0
-799 -903 394 0
-799 -904 419 0
-799 -905 444 0
-799 -906 469 0
-799 -907 494 0
-799 -908 519 0
-799 -909 544 0
-799 -910 569 0
-799 -911 594 0
-799 -912 619 0
-799 -913 644 0
-799 -914 669 0
-799 -915 694 0
-799 -916 719 0
-799 -917 744 0
-799 -918 769 0
-799 -919 794 0
-799 -920 819 0
-799 -921 844 0
-799 -922 869 0
-799 -923 894 0
-799 -924 919 0
-799 -925 944 0
-800 -926 344 0
-800 -927 369 0
-800 -928 394 0
-800 -929 419 0
-800 -930 444 0
-800 -931 469 0
-800 -932 494 0
-800 -933 519 0
-800 -934 544 0
-800 -935 569 0
-800 -936 594 0
-800 -937 619 0
-800 -938 644 0
-800 -939 669 0
-800 -940 694 0
-800 -941 719 0
-800 -942 744 0
-800 -943 769 0
-800 -944 794 0
-800 -945 819 0
-800 -946 844 0
-800 -947 869 0
-800 -948 894 0
-800 -949 919 0
-800 -950 944 0
-801 -326 345 0
-801 -327 370 0
-801 -328 395 0
-801 -329 420 0
-801 -330 445 0
-801 -331 470 0
-801 -332 495 0
-801 -333 520 0
-801 -334 545 0
-801 -335 570 0
-801 -336 595 0
-801 -337 620 0
-801 -338 645 0
-801 -339 670 0
-801 -340 695 0
-801 -341 720 0
-801 -342 745 0
-801 -343 770 0
-801 -344 795 0
-801 -345 820 0
-801 -346 845 0
-801 -347 870 0
-801 -348 895 0
-801 -349 920 0
-801 -350 945 0
-802 -351 345 0
-802 -352 370 0
-802 -353 395 0
-802 -354 420 0
-802 -355 445 0
-802 -356 470 0
-802 -357 495 0
-802 -358 520 0
-802 -359 545 0
-802 -360 570 0
-802 -361 595 0
-802 -362 620 0
-802 -363 645 0
-802 -364 670 0
-802 -365 695 0
-802 -366 720 0
-802 -367 745 0
-802 -368 770 0
-802 -369 795 0
-802 -370 820 0
-802 -371 845 0
-802 -372 870 0
-802 -373 895 0
-802 -374 920 0
-802 -375 945 0
-803 -376 345 0
-803 -377 370 0
-803 -378 395 0
-803 -379 420 0
-803 -380 445 0
-803 -381 470 0
-803 -382 495 0
-803 -383 520 0
-803 -384 545 0
-803 -385 570 0
-803 -386 595 0
-803 -387 620 0
-803 -388 645 0
-803 -389 670 0
-803 -390 695 0
-803 -391 720 0
-803 -392 745 0
-803 -393 770 0
-803 -394 795 0
-803 -395 820 0
-803 -396 845 0
-803 -397 870 0
-803 -398 895 0
-803 -399 920 0
-803 -400 945 0
-804 -401 345 0
-804 -402 370 0
-804 -403 395 0
-804 -404 420 0
-804 -405 445 0
-804 -406 470 0
-804 -407 495 0
-804 -408 520 0
-804 -409 545 0
-804 -410 570 0
-804 -411 595 0
-804 -412 620 0
-804 -413 645 0
-804 -414 670 0
-804 -415 695 0
-804 -416 720 0
-804 -417 745 0
-804 -418 770 0
-804 -419 795 0
-804 -420 820 0
-804 -421 845 0
-804 -422 870 0
-804 -423 895 0
-804 -424 920 0
-804 -425 945 0
-805 -426 345 0
-805 -427 370 0
-805 -428 395 0
-805 -429 420 0
-805 -430 445 0
-805 -431 470 0
-805 -432 495 0
-805 -433 520 0
-805 -434 545 0
-805 -435 570 0
-805 -436 595 0
-805 -437 620 0
-805 -438 645 0
-805 -439 670 0
-805 -440 695 0
-805 -441 720 0
-805 -442 745 0
-805 -443 770 0
-805 -444 795 0
-805 -445 820 0
-805 -446 845 0
-805 -447 870 0
-805 -448 895 0
-805 -449 920 0
-805 -450 945 0
-806 -451 345 0
-806 -452 370 0
-806 -453 395 0
-806 -454 420 0
-806 -455 445 0
-806 -456 470 0
-806 -457 495 0
-806 -458 520 0
-806 -459 545 0
-806 -460 570 0
-806 -461 595 0
-806 -462 620 0
-806 -463 645 0
-806 -464 670 0
-806 -465 695 0
-806 -466 720 0
-806 -467 745 0
-806 -468 770 0
-806 -469 795 0
-806 -470 820 0
-806 -471 845 0
-806 -472 870 0
-806 -473 895 0
-806 -474 920 0
-806 -475 945 0
-807 -476 345 0
-807 -477 370 0
-807 -478 395 0
-807 -479 420 0
-807 -480 445 0
-807 -481 470 0
-807 -482 495 0
-807 -483 520 0
-807 -484 545 0
-807 -485 570 0
-807 -486 595 0
-807 -487 620 0
-807 -488 645 0
-807 -489 670 0
-807 -490 695 0
-807 -491 720 0
-807 -492 745 0
-807 -493 770 0
-807 -494 795 0
-807 -495 820 0
-807 -496 845 0
-807 -497 870 0
-807 -498 895 0
-807 -499 920 0
-807 -500 945 0
-808 -501 345 0
-808 -502 370 0
-808 -503 395 0
-808 -504 420 0
-808 -505 445 0
-808 -506 470 0
-808 -507 495 0
-808 -508 520 0
-808 -509 545 0
-808 -510 570 0
-808 -511 595 0
-808 -512 620 0
-808 -513 645 0
-808 -514 670 0
-808 -515 695 0
-808 -516 720 0
-808 -517 745 0
-808 -518 770 0
-808 -519 795 0
-808 -520 820 0
-808 -521 845 0
-808 -522 870 0
-808 -523 895 0
-808 -524 920 0
-808 -525 945 0
-809 -526 345 0
-809 -527 370 0
-809 -528 395 0
-809 -529 420 0
-809 -530 445 0
-809 -531 470 0
-809 -532 495 0
-809 -533 520 0
-809 -534 545 0
-809 -535 570 0
-809 -536 595 0
-809 -537 620 0
-809 -538 645 0
-809 -539 670 0
-809 -540 695 0
-809 -541 720 0
-809 -542 745 0
-809 -543 770 0
-809 -544 795 0
-809 -545 820 0
-809 -546 845 0
-809 -547 870 0
-809 -548 895 0
-809 -549 920 0
-809 -550 945 0
-810 -551 345 0
-810 -552 370 0
-810 -553 395 0
-810 -554 420 0
-810 -555 445 0
-810 -556 470 0
-810 -557 495 0
-810 -558 520 0
-810 -559 545 0
-810 -560 570 0
-810 -561 595 0
-810 -562 620 0
-810 -563 645 0
-810 -564 670 0
-810 -565 695 0
-810 -566 720 0
-810 -567 745 0
-810 -568 770 0
-810 -569 795 0
-810 -570 820 0
-810 -571 845 0
-810 -572 870 0
-810 -573 895 0
-810 -574 920 0
-810 -575 945 0
-811 -576 345 0
-811 -577 370 0
-811 -578 395 0
-811 -579 420 0
-811 -580 445 0
-811 -581 470 0
-811 -582 495 0
-811 -583 520 0
-811 -584 545 0
-811 -585 570 0
-811 -586 595 0
-811 -587 620 0
-811 -588 645 0
-811 -589 670 0
-811 -590 695 0
-811 -591 720 0
-811 -592 745 0
-811 -593 770 0
-811 -594 795 0
-811 -595 820 0
-811 -596 845 0
-811 -597 870 0
-811 -598 895 0
-811 -599 920 0
-811 -600 945 0
-812 -601 345 0
-812 -602 370 0
-812 -603 395 0
-812 -604 420 0
-812 -605 445 0
-812 -606 470 0
-812 -607 495 0
-812 -608 520 0
-812 -609 545 0
-812 -610 570 0
-812 -611 595 0
-812 -612 620 0
-812 -613 645 0
-812 -614 670 0
-812 -615 695 0
-812 -616 720 0
-812 -617 745 0
-812 -618 770 0
-812 -619 795 0
-812 -620 820 0
-812 -621 845 0
-812 -622 870 0
-812 -623 895 0
-812 -624 920 0
-812 -625 945 0
-813 -626 345 0
-813 -627 370 0
-813 -628 395 0
-813 -629 420 0
-813 -630 445 0
-813 -631 470 0
-813 -632 495 0
-813 -633 520 0
-813 -634 545 0
-813 -635 570 0
-813 -636 595 0
-813 -637 620 0
-813 -638 645 0
-813 -639 670 0
-813 -640 695 0
-813 -641 720 0
-813 -642 745 0
-813 -643 770 0
-813 -644 795 0
-813 -645 820 0
-813 -646 845 0
-813 -647 870 0
-813 -648 895 0
-813 -649 920 0
-813 -650 945 0
-814 -651 345 0
-814 -652 370 0
-814 -653 395 0
-814 -654 420 0
-814 -655 445 0
-814 -656 470 0
-814 -657 495 0
-814 -658 520 0
-814 -659 545 0
-814 -660 570 0
-814 -661 595 0
-814 -662 620 0
-814 -663 645 0
-814 -664 670 0
-814 -665 695 0
-814 -666 720 0
-814 -667 745 0
-814 -668 770 0
-814 -669 795 0
-814 -670 820 0
-814 -671 845 0
-814 -672 870 0
-814 -673 895 0
-814 -674 920 0
-814 -675 945 0
-815 -676 345 0
-815 -677 370 0
-815 -678 395 0
-815 -679 420 0
-815 -680 445 0
-815 -681 470 0
-815 -682 495 0
-815 -683 520 0
-815 -684 545 0
-815 -685 570 0
-815 -686 595 0
-815 -687 620 0
-815 -688 645 0
-815 -689 670 0
-815 -690 695 0
-815 -691 720 0
-815 -692 745 0
-815 -693 770 0
-815 -694 795 0
-815 -695 820 0
-815 -696 845 0
-815 -697 870 0
-815 -698 895 0
-815 -699 920 0
-815 -700 945 0
-816 -701 345 0
-816 -702 370 0
-816 -703 395 0
-816 -704 420 0
-816 -705 445 0
-816 -706 470 0
-816 -707 495 0
-816 -708 520 0
-816 -709 545 0
-816 -710 570 0
-816 -711 595 0
-816 -712 620 0
-816 -713 645 0
-816 -714 670 0
-816 -715 695 0
-816 -716 720 0
-816 -717 745 0
-816 -718 770 0
-816 -719 795 0
-816 -720 820 0
-816 -721 845 0
-816 -722 870 0
-816 -723 895 0
-816 -724 920 0
-816 -725 945 0
-817 -726 345 0
-817 -727 370 0
-817 -728 395 0
-817 -729 420 0
-817 -730 445 0
-817 -731 470 0
-817 -732 495 0
-817 -733 520 0
-817 -734 545 0
-817 -735 570 0
-817 -736 595 0
-817 -737 620 0
-817 -738 645 0
-817 -739 670 0
-817 -740 695 0
-817 -741 720 0
-817 -742 745 0
-817 -743 770 0
-817 -744 795 0
-817 -745 820 0
-817 -746 845 0
-817 -747 870 0
-817 -748 895 0
-817 -749 920 0
-817 -750 945 0
-818 -751 345 0
-818 -752 370 0
-818 -753 395 0
-818 -754 420 0
-818 -755 445 0
-818 -756 470 0
-818 -757 495 0
-818 -758 520 0
-818 -759 545 0
-818 -760 570 0
-818 -761 595 0
-818 -762 620 0
-818 -763 645 0
-818 -764 670 0
-818 -765 695 0
-818 -766 720 0
-818 -767 745 0
-818 -768 770 0
-818 -769 795 0
-818 -770 820 0
-818 -771 845 0
-818 -772 870 0
-818 -773 895 0
-818 -774 920 0
-818 -775 945 0
-819 -776 345 0
-819 -777 370 0
-819 -778 395 0
-819 -779 420 0
-819 -780 445 0
-819 -781 470 0
-819 -782 495 0
-819 -783 520 0
-819 -784 545 0
-819 -785 570 0
-819 -786 595 0
-819 -787 620 0
-819 -788 645 0
-819 -789 670 0
-819 -790 695 0
-819 -791 720 0
-819 -792 745 0
-819 -793 770 0
-819 -794 795 0
-819 -795 820 0
-819 -796 845 0
-819 -797 870 0
-819 -798 895 0
-819 -799 920 0
-819 -800 945 0
-820 -801 345 0
-820 -802 370 0
-820 -803 395 0
-820 -804 420 0
-820 -805 445 0
-820 -806 470 0
-820 -807 495 0
-820 -808 520 0
-820 -809 545 0
-820 -810 570 0
-820 -811 595 0
-820 -812 620 0
-820 -813 645 0
-820 -814 670 0
-820 -815 695 0
-820 -816 720 0
-820 -817 745 0
-820 -818 770 0
-820 -819 795 0
-820 -820 820 0
-820 -821 845 0
-820 -822 870 0
-820 -823 895 0
-820 -824 920 0
-820 -825 945 0
-821 -826 345 0
-821 -827 370 0
-821 -828 395 0
-821 -829 420 0
-821 -830 445 0
-821 -831 470 0
-821 -832 495 0
-821 -833 520 0
-821 -834 545 0
-821 -835 570 0
-821 -836 595 0
-821 -837 620 0
-821 -838 645 0
-821 -839 670 0
-821 -840 695 0
-821 -841 720 0
-821 -842 745 0
-821 -843 770 0
-821 -844 795 0
-821 -845 820 0
-821 -846 845 0
-821 -847 870 0
-821 -848 895 0
-821 -849 920 0
-821 -850 945 0
-822 -851 345 0
-822 -852 370 0
-822 -853 395 0
-822 -854 420 0
-822 -855 445 0
-822 -856 470 0
-822 -857 495 0
-822 -858 520 0
-822 -859 545 0
-822 -860 570 0
-822 -861 595 0
-822 -862 620 0
-822 -863 645 0
-822 -864 670 0
-822 -865 695 0
-822 -866 720 0
-822 -867 745 0
-822 -868 770 0
-822 -869 795 0
-822 -870 820 0
-822 -871 845 0
-822 -872 870 0
-822 -873 895 0
-822 -874 920 0
-822 -875 945 0
-823 -876 345 0
-823 -877 370 0
-823 -878 395 0
-823 -879 420 0
-823 -880 445 0
-823 -881 470 0
-823 -882 495 0
-823 -883 520 0
-823 -884 545 0
-823 -885 570 0
-823 -886 595 0
-823 -887 620 0
-823 -888 645 0
-823 -889 670 0
-823 -890 695 0
-823 -891 720 0
-823 -892 745 0
-823 -893 770 0
-823 -894 795 0
-823 -895 820 0
-823 -896 845 0
-823 -897 870 0
-823 -898 895 0
-823 -899 920 0
-823 -900 945 0
-824 -901 345 0
-824 -902 370 0
-824 -903 395 0
-824 -904 420 0
-824 -905 445 0
-824 -906 470 0
-824 -907 495 0
-824 -908 520 0
-824 -909 545 0
-824 -910 570 0
-824 -911 595 0
-824 -912 620 0
-824 -913 645 0
-824 -914 670 0
-824 -915 695 0
-824 -916 720 0
-824 -917 745 0
-824 -918 770 0
-824 -919 795 0
-824 -920 820 0
-824 -921 845 0
-824 -922 870 0
-824 -923 895 0
-824 -924 920 0
-824 -925 945 0
-825 -926 345 0
-825 -927 370 0
-825 -928 395 0
-825 -929 420 0
-825 -930 445 0
-825 -931 470 0
-825 -932 495 0
-825 -933 520 0
-825 -934 545 0
-825 -935 570 0
-825 -936 595 0
-825 -937 620 0
-825 -938 645 0
-825 -939 670 0
-825 -940 695 0
-825 -941 720 0
-825 -942 745 0
-825 -943 770 0
-825 -944 795 0
-825 -945 820 0
-825 -946 845 0
-825 -947 870 0
-825 -948 895 0
-825 -949 920 0
-825 -950 945 0
-826 -326 346 0
-826 -327 371 0
-826 -328 396 0
-826 -329 421 0
-826 -330 446 0
-826 -331 471 0
-826 -332 496 0
-826 -333 521 0
-826 -334 546 0
-826 -335 571 0
-826 -336 596 0
-826 -337 621 0
-826 -338 646 0
-826 -339 671 0
-826 -340 696 0
-826 -341 721 0
-826 -342 746 0
-826 -343 771 0
-826 -344 796 0
-826 -345 821 0
-826 -346 846 0
-826 -347 871 0
-826 -348 896 0
-826 -349 921 0
-826 -350 946 0
-827 -351 346 0
-827 -352 371 0
-827 -353 396 0
-827 -354 421 0
-827 -355 446 0
-827 -356 471 0
-827 -357 496 0
-827 -358 521 0
-827 -359 546 0
-827 -360 571 0
-827 -361 596 0
-827 -362 621 0
-827 -363 646 0
-827 -364 671 0
-827 -365 696 0
-827 -366 721 0
-827 -367 746 0
-827 -368 771 0
-827 -369 796 0
-827 -370 821 0
-827 -371 846 0
-827 -372 871 0
-827 -373 896 0
-827 -374 921 0
-827 -375 946 0
-828 -376 346 0
-828 -377 371 0
-828 -378 396 0
-828 -379 421 0
-828 -380 446 0
-828 -381 471 0
-828 -382 496 0
-828 -383 521 0
-828 -384 546 0
-828 -385 571 0
-828 -386 596 0
-828 -387 621 0
-828 -388 646 0
-828 -389 671 0
-828 -390 696 0
-828 -391 721 0
-828 -392 746 0
-828 -393 771 0
-828 -394 796 0
-828 -395 821 0
-828 -396 846 0
-828 -397 871 0
-828 -398 896 0
-828 -399 921 0
-828 -400 946 0
-829 -401 346 0
-829 -402 371 0
-829 -403 396 0
-829 -404 421 0
-829 -405 446 0
-829 -406 471 0
-829 -407 496 0
-829 -408 521 0
-829 -409 546 0
-829 -410 571 0
-829 -411 596 0
-829 -412 621 0
-829 -413 646 0
-829 -414 671 0
-829 -415 696 0
-829 -416 721 0
-829 -417 746 0
-829 -418 771 0
-829 -419 796 0
-829 -420 821 0
-829 -421 846 0
-829 -422 871 0
-829 -423 896 0
-829 -424 921 0
-829 -425 946 0
-830 -426 346 0
-830 -427 371 0
-830 -428 396 0
-830 -429 421 0
-830 -430 446 0
-830 -431 471 0
-830 -432 496 0
-830 -433 521 0
-830 -434 546 0
-830 -435 571 0
-830 -436 596 0
-830 -437 621 0
-830 -438 646 0
-830 -439 671 0
-830 -440 696 0
-830 -441 721 0
-830 -442 746 0
-830 -443 771 0
-830 -444 796 0
-830 -445 821 0
-830 -446 846 0
-830 -447 871 0
-830 -448 896 0
-830 -449 921 0
-830 -450 946 0
-831 -451 346 0
-831 -452 371 0
-831 -453 396 0
-831 -454 421 0
-831 -455 446 0
-831 -456 471 0
-831 -457 496 0
-831 -458 521 0
-831 -459 546 0
-831 -460 571 0
-831 -461 596 0
-831 -462 621 0
-831 -463 646 0
-831 -464 671 0
-831 -465 696 0
-831 -466 721 0
-831 -467 746 0
-831 -468 771 0
-831 -469 796 0
-831 -470 821 0
-831 -471 846 0
-831 -472 871 0
-831 -473 896 0
-831 -474 921 0
-831 -475 946 0
-832 -476 346 0
-832 -477 371 0
-832 -478 396 0
-832 -479 421 0
-832 -480 446 0
-832 -481 471 0
-832 -482 496 0
-832 -483 521 0
-832 -484 546 0
-832 -485 571 0
-832 -486 596 0
-832 -487 621 0
-832 -488 646 0
-832 -489 671 0
-832 -490 696 0
-832 -491 721 0
-832 -492 746 0
-832 -493 771 0
-832 -494 796 0
-832 -495 821 0
-832 -496 846 0
-832 -497 871 0
-832 -498 896 0
-832 -499 921 0
-832 -500 946 0
-833 -501 346 0
-833 -502 371 0
-833 -503 396 0
-833 -504 421 0
-833 -505 446 0
-833 -506 471 0
-833 -507 496 0
-833 -508 521 0
-833 -509 546 0
-833 -510 571 0
-833 -511 596 0
-833 -512 621 0
-833 -513 646 0
-833 -514 671 0
-833 -515 696 0
-833 -516 721 0
-833 -517 746 0
-833 -518 771 0
-833 -519 796 0
-833 -520 821 0
-833 -521 846 0
-833 -522 871 0
-833 -523 896 0
-833 -524 921 0
-833 -525 946 0
-834 -526 346 0
-834 -527 371 0
-834 -528 396 0
-834 -529 421 0
-834 -530 446 0
-834 -531 471 0
-834 -532 496 0
-834 -533 521 0
-834 -534 546 0
-834 -535 571 0
-834 -536 596 0
-834 -537 621 0
-834 -538 646 0
-834 -539 671 0
-834 -540 696 0
-834 -541 721 0
-834 -542 746 0
-834 -543 771 0
-834 -544 796 0
-834 -545 821 0
-834 -546 846 0
-834 -547 871 0
-834 -548 896 0
-834 -549 921 0
-834 -550 946 0
-835 -551 346 0
-835 -552 371 0
-835 -553 396 0
-835 -554 421 0
-835 -555 446 0
-835 -556 471 0
-835 -557 496 0
-835 -558 521 0
-835 -559 546 0
-835 -560 571 0
-835 -561 596 0
-835 -562 621 0
-835 -563 646 0
-835 -564 671 0
-835 -565 696 0
-835 -566 721 0
-835 -567 746 0
-835 -568 771 0
-835 -569 796 0
-835 -570 821 0
-835 -571 846 0
-835 -572 871 0
-835 -573 896 0
-835 -574 921 0
-835 -575 946 0
-836 -576 346 0
-836 -577 371 0
-836 -578 396 0
-836 -579 421 0
-836 -580 446 0
-836 -581 471 0
-836 -582 496 0
-836 -583 521 0
-836 -584 546 0
-836 -585 571 0
-836 -586 596 0
-836 -587 621 0
-836 -588 646 0
-836 -589 671 0
-836 -590 696 0
-836 -591 721 0
-836 -592 746 0
-836 -593 771 0
-836 -594 796 0
-836 -595 821 0
-836 -596 846 0
-836 -597 871 0
-836 -598 896 0
-836 -599 921 0
-836 -600 946 0
-837 -601 346 0
-837 -602 371 0
-837 -603 396 0
-837 -604 421 0
-837 -605 446 0
-837 -606 471 0
-837 -607 496 0
-837 -608 521 0
-837 -609 546 0
-837 -610 571 0
-837 -611 596 0
-837 -612 621 0
-837 -613 646 0
-837 -614 671 0
-837 -615 696 0
-837 -616 721 0
-837 -617 746 0
-837 -618 771 0
-837 -619 796 0
-837 -620 821 0
-837 -621 846 0
-837 -622 871 0
-837 -623 896 0
-837 -624 921 0
-837 -625 946 0
-838 -626 346 0
-838 -627 371 0
-838 -628 396 0
-838 -629 421 0
-838 -630 446 0
-838 -631 471 0
-838 -632 496 0
-838 -633 521 0
-838 -634 546 0
-838 -635 571 0
-838 -636 596 0
-838 -637 621 0
-838 -638 646 0
-838 -639 671 0
-838 -640 696 0
-838 -641 721 0
-838 -642 746 0
-838 -643 771 0
-838 -644 796 0
-838 -645 821 0
-838 -646 846 0
-838 -647 871 0
-838 -648 896 0
-838 -649 921 0
-838 -650 946 0
-839 -651 346 0
-839 -652 371 0
-839 -653 396 0
-839 -654 421 0
-839 -655 446 0
-839 -656 471 0
-839 -657 496 0
-839 -658 521 0
-839 -659 546 0
-839 -660 571 0
-839 -661 596 0
-839 -662 621 0
-839 -663 646 0
-839 -664 671 0
-839 -665 696 0
-839 -666 721 0
-839 -667 746 0
-839 -668 771 0
-839 -669 796 0
-839 -670 821 0
-839 -671 846 0
-839 -672 871 0
-839 -673 896 0
-839 -674 921 0
-839 -675 946 0
-840 -676 346 0
-840 -677 371 0
-840 -678 396 0
-840 -679 421 0
-840 -680 446 0
-840 -681 471 0
-840 -682 496 0
-840 -683 521 0
-840 -684 546 0
-840 -685 571 0
-840 -686 596 0
-840 -687 621 0
-840 -688 646 0
-840 -689 671 0
-840 -690 696 0
-840 -691 721 0
-840 -692 746 0
-840 -693 771 0
-840 -694 796 0
-840 -695 821 0
-840 -696 846 0
-840 -697 871 0
-840 -698 896 0
-840 -699 921 0
-840 -700 946 0
-841 -701 346 0
-841 -702 371 0
-841 -703 396 0
-841 -704 421 0
-841 -705 446 0
-841 -706 471 0
-841 -707 496 0
-841 -708 521 0
-841 -709 546 0
-841 -710 571 0
-841 -711 596 0
-841 -712 621 0
-841 -713 646 0
-841 -714 671 0
-841 -715 696 0
-841 -716 721 0
-841 -717 746 0
-841 -718 771 0
-841 -719 796 0
-841 -720 821 0
-841 -721 846 0
-841 -722 871 0
-841 -723 896 0
-841 -724 921 0
-841 -725 946 0
-842 -726 346 0
-842 -727 371 0
-842 -728 396 0
-842 -729 421 0
-842 -730 446 0
-842 -731 471 0
-842 -732 496 0
-842 -733 521 0
-842 -734 546 0
-842 -735 571 0
-842 -736 596 0
-842 -737 621 0
-842 -738 646 0
-842 -739 671 0
-842 -740 696 0
-842 -741 721 0
-842 -742 746 0
-842 -743 771 0
-842 -744 796 0
-842 -745 821 0
-842 -746 846 0
-842 -747 871 0
-842 -748 896 0
-842 -749 921 0
-842 -750 946 0
-843 -751 346 0
-843 -752 371 0
-843 -753 396 0
-843 -754 421 0
-843 -755 446 0
-843 -756 471 0
-843 -757 496 0
-843 -758 521 0
-843 -759 546 0
-843 -760 571 0
-843 -761 596 0
-843 -762 621 0
-843 -763 646 0
-843 -764 671 0
-843 -765 696 0
-843 -766 721 0
-843 -767 746 0
-843 -768 771 0
-843 -769 796 0
-843 -770 821 0
-843 -771 846 0
-843 -772 871 0
-843 -773 896 0
-843 -774 921 0
-843 -775 946 0
-844 -776 346 0
-844 -777 371 0
-844 -778 396 0
-844 -779 421 0
-844 -780 446 0
-844 -781 471 0
-844 -782 496 0
-844 -783 521 0
-844 -784 546 0
-844 -785 571 0
-844 -786 596 0
-844 -787 621 0
-844 -788 646 0
-844 -789 671 0
-844 -790 696 0
-844 -791 721 0
-844 -792 746 0
-844 -793 771 0
-844 -794 796 0
-844 -795 821 0
-844 -796 846 0
-844 -797 871 0
-844 -798 896 0
-844 -799 921 0
-844 -800 946 0
-845 -801 346 0
-845 -802 371 0
-845 -803 396 0
-845 -804 421 0
-845 -805 446 0
-845 -806 471 0
-845 -807 496 0
-845 -808 521 0
-845 -809 546 0
-845 -810 571 0
-845 -811 596 0
-845 -812 621 0
-845 -813 646 0
-845 -814 671 0
-845 -815 696 0
-845 -816 721 0
-845 -817 746 0
-845 -818 771 0
-845 -819 796 0
-845 -820 821 0
-845 -821 846 0
-845 -822 871 0
-845 -823 896 0
-845 -824 921 0
-845 -825 946 0
-846 -826 346 0
-846 -827 371 0
-846 -828 396 0
-846 -829 421 0
-846 -830 446 0
-846 -831 471 0
-846 -832 496 0
-846 -833 521 0
-846 -834 546 0
-846 -835 571 0
-846 -836 596 0
-846 -837 621 0
-846 -838 646 0
-846 -839 671 0
-846 -840 696 0
-846 -841 721 0
-846 -842 746 0
-846 -843 771 0
-846 -844 796 0
-846 -845 821 0
-846 -846 846 0
-846 -847 871 0
-846 -848 896 0
-846 -849 921 0
-846 -850 946 0
-847 -851 346 0
-847 -852 371 0
-847 -853 396 0
-847 -854 421 0
-847 -855 446 0
-847 -856 471 0
-847 -857 496 0
-847 -858 521 0
-847 -859 546 0
-847 -860 571 0
-847 -861 596 0
-847 -862 621 0
-847 -863 646 0
-847 -864 671 0
-847 -865 696 0
-847 -866 721 0
-847 -867 746 0
-847 -868 771 0
-847 -869 796 0
-847 -870 821 0
-847 -871 846 0
-847 -872 871 0
-847 -873 896 0
-847 -874 921 0
-847 -875 946 0
-848 -876 346 0
-848 -877 371 0
-848 -878 396 0
-848 -879 421 0
-848 -880 446 0
-848 -881 471 0
-848 -882 496 0
-848 -883 521 0
-848 -884 546 0
-848 -885 571 0
-848 -886 596 0
-848 -887 621 0
-848 -888 646 0
-848 -889 671 0
-848 -890 696 0
-848 -891 721 0
-848 -892 746 0
-848 -893 771 0
-848 -894 796 0
-848 -895 821 0
-848 -896 846 0
-848 -897 871 0
-848 -898 896 0
-848 -899 921 0
-848 -900 946 0
-849 -901 346 0
-849 -902 371 0
-849 -903 396 0
-849 -904 421 0
-849 -905 446 0
-849 -906 471 0
-849 -907 496 0
-849 -908 521 0
-849 -909 546 0
-849 -910 571 0
-849 -911 596 0
-849 -912 621 0
-849 -913 646 0
-849 -914 671 0
-849 -915 696 0
-849 -916 721 0
-849 -917 746 0
-849 -918 771 0
-849 -919 796 0
-849 -920 821 0
-849 -921 846 0
-849 -922 871 0
-849 -923 896 0
-849 -924 921 0
-849 -925 946 0
-850 -926 346 0
-850 -927 371 0
-850 -928 396 0
-850 -929 421 0
-850 -930 446 0
-850 -931 471 0
-850 -932 496 0
-850 -933 521 0
-850 -934 546 0
-850 -935 571 0
-850 -936 596 0
-850 -937 621 0
-850 -938 646 0
-850 -939 671 0
-850 -940 696 0
-850 -941 721 0
-850 -942 746 0
-850 -943 771 0
-850 -944 796 0
-850 -945 821 0
-850 -946 846 0
-850 -947 871 0
-850 -948 896 0
-850 -949 921 0
-850 -950 946 0
-851 -326 347 0
-851 -327 372 0
-851 -328 397 0
-851 -329 422 0
-851 -330 447 0
-851 -331 472 0
-851 -332 497 0
-851 -333 522 0
-851 -334 547 0
-851 -335 572 0
-851 -336 597 0
-851 -337 622 0
-851 -338 647 0
-851 -339 672 0
-851 -340 697 0
-851 -341 722 0
-851 -342 747 0
-851 -343 772 0
-851 -344 797 0
-851 -345 822 0
-851 -346 847 0
-851 -347 872 0
-851 -348 897 0
-851 -349 922 0
-851 -350 947 0
-852 -351 347 0
-852 -352 372 0
-852 -353 397 0
-852 -354 422 0
-852 -355 447 0
-852 -356 472 0
-852 -357 497 0
-852 -358 522 0
-852 -359 547 0
-852 -360 572 0
-852 -361 597 0
-852 -362 622 0
-852 -363 647 0
-852 -364 672 0
-852 -365 697 0
-852 -366 722 0
-852 -367 747 0
-852 -368 772 0
-852 -369 797 0
-852 -370 822 0
-852 -371 847 0
-852 -372 872 0
-852 -373 897 0
-852 -374 922 0
-852 -375 947 0
-853 -376 347 0
-853 -377 372 0
-853 -378 397 0
-853 -379 422 0
-853 -380 447 0
-853 -381 472 0
-853 -382 497 0
-853 -383 522 0
-853 -384 547 0
-853 -385 572 0
-853 -386 597 0
-853 -387 622 0
-853 -388 647 0
-853 -389 672 0
-853 -390 697 0
-853 -391 722 0
-853 -392 747 0
-853 -393 772 0
-853 -394 797 0
-853 -395 822 0
-853 -396 847 0
-853 -397 872 0
-853 -398 897 0
-853 -399 922 0
-853 -400 947 0
-854 -401 347 0
-854 -402 372 0
-854 -403 397 0
-854 -404 422 0
-854 -405 447 0
-854 -406 472 0
-854 -407 497 0
-854 -408 522 0
-854 -409 547 0
-854 -410 572 0
-854 -411 597 0
-854 -412 622 0
-854 -413 647 0
-854 -414 672 0
-854 -415 697 0
-854 -416 722 0
-854 -417 747 0
-854 -418 772 0
-854 -419 797 0
-854 -420 822 0
-854 -421 847 0
-854 -422 872 0
-854 -423 897 0
-854 -424 922 0
-854 -425 947 0
-855 -426 347 0
-855 -427 372 0
-855 -428 397 0
-855 -429 422 0
-855 -430 447 0
-855 -431 472 0
-855 -432 497 0
-855 -433 522 0
-855 -434 547 0
-855 -435 572 0
-855 -436 597 0
-855 -437 622 0
-855 -438 647 0
-855 -439 672 0
-855 -440 697 0
-855 -441 722 0
-855 -442 747 0
-855 -443 772 0
-855 -444 797 0
-855 -445 822 0
-855 -446 847 0
-855 -447 872 0
-855 -448 897 0
-855 -449 922 0
-855 -450 947 0
-856 -451 347 0
-856 -452 372 0
-856 -453 397 0
-856 -454 422 0
-856 -455 447 0
-856 -456 472 0
-856 -457 497 0
-856 -458 522 0
-856 -459 547 0
-856 -460 572 0
-856 -461 597 0
-856 -462 622 0
-856 -463 647 0
-856 -464 672 0
-856 -465 697 0
-856 -466 722 0
-856 -467 747 0
-856 -468 772 0
-856 -469 797 0
-856 -470 822 0
-856 -471 847 0
-856 -472 872 0
-856 -473 897 0
-856 -474 922 0
-856 -475 947 0
-857 -476 347 0
-857 -477 372 0
-857 -478 397 0
-857 -479 422 0
-857 -480 447 0
-857 -481 472 0
-857 -482 497 0
-857 -483 522 0
-857 -484 547 0
-857 -485 572 0
-857 -486 597 0
-857 -487 622 0
-857 -488 647 0
-857 -489 672 0
-857 -490 697 0
-857 -491 722 0
-857 -492 747 0
-857 -493 772 0
-857 -494 797 0
-857 -495 822 0
-857 -496 847 0
-857 -497 872 0
-857 -498 897 0
-857 -499 922 0
-857 -500 947 0
-858 -501 347 0
-858 -502 372 0
-858 -503 397 0
-858 -504 422 0
-858 -505 447 0
-858 -506 472 0
-858 -507 497 0
-858 -508 522 0
-858 -509 547 0
-858 -510 572 0
-858 -511 597 0
-858 -512 622 0
-858 -513 647 0
-858 -514 672 0
-858 -515 697 0
-858 -516 722 0
-858 -517 747 0
-858 -518 772 0
-858 -519 797 0
-858 -520 822 0
-858 -521 847 0
-858 -522 872 0
-858 -523 897 0
-858 -524 922 0
-858 -525 947 0
-859 -526 347 0
-859 -527 372 0
-859 -528 397 0
-859 -529 422 0
-859 -530 447 0
-859 -531 472 0
-859 -532 497 0
-859 -533 522 0
-859 -534 547 0
-859 -535 572 0
-859 -536 597 0
-859 -537 622 0
-859 -538 647 0
-859 -539 672 0
-859 -540 697 0
-859 -541 722 0
-859 -542 747 0
-859 -543 772 0
-859 -544 797 0
-859 -545 822 0
-859 -546 847 0
-859 -547 872 0
-859 -548 897 0
-859 -549 922 0
-859 -550 947 0
-860 -551 347 0
-860 -552 372 0
-860 -553 397 0
-860 -554 422 0
-860 -555 447 0
-860 -556 472 0
-860 -557 497 0
-860 -558 522 0
-860 -559 547 0
-860 -560 572 0
-860 -561 597 0
-860 -562 622 0
-860 -563 647 0
-860 -564 672 0
-860 -565 697 0
-860 -566 722 0
-860 -567 747 0
-860 -568 772 0
-860 -569 797 0
-860 -570 822 0
-860 -571 847 0
-860 -572 872 0
-860 -573 897 0
-860 -574 922 0
-860 -575 947 0
-861 -576 347 0
-861 -577 372 0
-861 -578 397 0
-861 -579 422 0
-861 -580 447 0
-861 -581 472 0
-861 -582 497 0
-861 -583 522 0
-861 -584 547 0
-861 -585 572 0
-861 -586 597 0
-861 -587 622 0
-861 -588 647 0
-861 -589 672 0
-861 -590 697 0
-861 -591 722 0
-861 -592 747 0
-861 -593 772 0
-861 -594 797 0
-861 -595 822 0
-861 -596 847 0
-861 -597 872 0
-861 -598 897 0
-861 -599 922 0
-861 -600 947 0
-862 -601 347 0
-862 -602 372 0
-862 -603 397 0
-862 -604 422 0
-862 -605 447 0
-862 -606 472 0
-862 -607 497 0
-862 -608 522 0
-862 -609 547 0
-862 -610 572 0
-862 -611 597 0
-862 -612 622 0
-862 -613 647 0
-862 -614 672 0
-862 -615 697 0
-862 -616 722 0
-862 -617 747 0
-862 -618 772 0
-862 -619 797 0
-862 -620 822 0
-862 -621 847 0
-862 -622 872 0
-862 -623 897 0
-862 -624 922 0
-862 -625 947 0
-863 -626 347 0
-863 -627 372 0
-863 -628 397 0
-863 -629 422 0
-863 -630 447 0
-863 -631 472 0
-863 -632 497 0
-863 -633 522 0
-863 -634 547 0
-863 -635 572 0
-863 -636 597 0
-863 -637 622 0
-863 -638 647 0
-863 -639 672 0
-863 -640 697 0
-863 -641 722 0
-863 -642 747 0
-863 -643 772 0
-863 -644 797 0
-863 -645 822 0
-863 -646 847 0
-863 -647 872 0
-863 -648 897 0
-863 -649 922 0
-863 -650 947 0
-864 -651 347 0
-864 -652 372 0
-864 -653 397 0
-864 -654 422 0
-864 -655 447 0
-864 -656 472 0
-864 -657 497 0
-864 -658 522 0
-864 -659 547 0
-864 -660 572 0
-864 -661 597 0
-864 -662 622 0
-864 -663 647 0
-864 -664 672 0
-864 -665 697 0
-864 -666 722 0
-864 -667 747 0
-864 -668 772 0
-864 -669 797 0
-864 -670 822 0
-864 -671 847 0
-864 -672 872 0
-864 -673 897 0
-864 -674 922 0
-864 -675 947 0
-865 -676 347 0
-865 -677 372 0
-865 -678 397 0
-865 -679 422 0
-865 -680 447 0
-865 -681 472 0
-865 -682 497 0
-865 -683 522 0
-865 -684 547 0
-865 -685 572 0
-865 -686 597 0
-865 -687 622 0
-865 -688 647 0
-865 -689 672 0
-865 -690 697 0
-865 -691 722 0
-865 -692 747 0
-865 -693 772 0
-865 -694 797 0
-865 -695 822 0
-865 -696 847 0
-865 -697 872 0
-865 -698 897 0
-865 -699 922 0
-865 -700 947 0
-866 -701 347 0
-866 -702 372 0
-866 -703 397 0
-866 -704 422 0
-866 -705 447 0
-866 -706 472 0
-866 -707 497 0
-866 -708 522 0
-866 -709 547 0
-866 -710 572 0
-866 -711 597 0
-866 -712 622 0
-866 -713 647 0
-866 -714 672 0
-866 -715 697 0
-866 -716 722 0
-866 -717 747 0
-866 -718 772 0
-866 -719 797 0
-866 -720 822 0
-866 -721 847 0
-866 -722 872 0
-866 -723 897 0
-866 -724 922 0
-866 -725 947 0
-867 -726 347 0
-867 -727 372 0
-867 -728 397 0
-867 -729 422 0
-867 -730 447 0
-867 -731 472 0
-867 -732 497 0
-867 -733 522 0
-867 -734 547 0
-867 -735 572 0
-867 -736 597 0
-867 -737 622 0
-867 -738 647 0
-867 -739 672 0
-867 -740 697 0
-867 -741 722 0
-867 -742 747 0
-867 -743 772 0
-867 -744 797 0
-867 -745 822 0
-867 -746 847 0
-867 -747 872 0
-867 -748 897 0
-867 -749 922 0
-867 -750 947 0
-868 -751 347 0
-868 -752 372 0
-868 -753 397 0
-868 -754 422 0
-868 -755 447 0
-868 -756 472 0
-868 -757 497 0
-868 -758 522 0
-868 -759 547 0
-868 -760 572 0
-868 -761 597 0
-868 -762 622 0
-868 -763 647 0
-868 -764 672 0
-868 -765 697 0
-868 -766 722 0
-868 -767 747 0
-868 -768 772 0
-868 -769 797 0
-868 -770 822 0
-868 -771 847 0
-868 -772 872 0
-868 -773 897 0
-868 -774 922 0
-868 -775 947 0
-869 -776 347 0
-869 -777 372 0
-869 -778 397 0
-869 -779 422 0
-869 -780 447 0
-869 -781 472 0
-869 -782 497 0
-869 -783 522 0
-869 -784 547 0
-869 -785 572 0
-869 -786 597 0
-869 -787 622 0
-869 -788 647 0
-869 -789 672 0
-869 -790 697 0
-869 -791 722 0
-869 -792 747 0
-869 -793 772 0
-869 -794 797 0
-869 -795 822 0
-869 -796 847 0
-869 -797 872 0
-869 -798 897 0
-869 -799 922 0
-869 -800 947 0
-870 -801 347 0
-870 -802 372 0
-870 -803 397 0
-870 -804 422 0
-870 -805 447 0
-870 -806 472 0
-870 -807 497 0
-870 -808 522 0
-870 -809 547 0
-870 -810 572 0
-870 -811 597 0
-870 -812 622 0
-870 -813 647 0
-870 -814 672 0
-870 -815 697 0
-870 -816 722 0
-870 -817 747 0
-870 -818 772 0
-870 -819 797 0
-870 -820 822 0
-870 -821 847 0
-870 -822 872 0
-870 -823 897 0
-870 -824 922 0
-870 -825 947 0
-871 -826 347 0
-871 -827 372 0
-871 -828 397 0
-871 -829 422 0
-871 -830 447 0
-871 -831 472 0
-871 -832 497 0
-871 -833 522 0
-871 -834 547 0
-871 -835 572 0
-871 -836 597 0
-871 -837 622 0
-871 -838 647 0
-871 -839 672 0
-871 -840 697 0
-871 -841 722 0
-871 -842 747 0
-871 -843 772 0
-871 -844 797 0
-871 -845 822 0
-871 -846 847 0
-871 -847 872 0
-871 -848 897 0
-871 -849 922 0
-871 -850 947 0
-872 -851 347 0
-872 -852 372 0
-872 -853 397 0
-872 -854 422 0
-872 -855 447 0
-872 -856 472 0
-872 -857 497 0
-872 -858 522 0
-872 -859 547 0
-872 -860 572 0
-872 -861 597 0
-872 -862 622 0
-872 -863 647 0
-872 -864 672 0
-872 -865 697 0
-872 -866 722 0
-872 -867 747 0
-872 -868 772 0
-872 -869 797 0
-872 -870 822 0
-872 -871 847 0
-872 -872 872 0
-872 -873 897 0
-872 -874 922 0
-872 -875 947 0
-873 -876 347 0
-873 -877 372 0
-873 -878 397 0
-873 -879 422 0
-873 -880 447 0
-873 -881 472 0
-873 -882 497 0
-873 -883 522 0
-873 -884 547 0
-873 -885 572 0
-873 -886 597 0
-873 -887 622 0
-873 -888 647 0
-873 -889 672 0
-873 -890 697 0
-873 -891 722 0
-873 -892 747 0
-873 -893 772 0
-873 -894 797 0
-873 -895 822 0
-873 -896 847 0
-873 -897 872 0
-873 -898 897 0
-873 -899 922 0
-873 -900 947 0
-874 -901 347 0
-874 -902 372 0
-874 -903 397 0
-874 -904 422 0
-874 -905 447 0
-874 -906 472 0
-874 -907 497 0
-874 -908 522 0
-874 -909 547 0
-874 -910 572 0
-874 -911 597 0
-874 -912 622 0
-874 -913 647 0
-874 -914 672 0
-874 -915 697 0
-874 -916 722 0
-874 -917 747 0
-874 -918 772 0
-874 -919 797 0
-874 -920 822 0
-874 -921 847 0
-874 -922 872 0
-874 -923 897 0
-874 -924 922 0
-874 -925 947 0
-875 -926 347 0
-875 -927 372 0
-875 -928 397 0
-875 -929 422 0
-875 -930 447 0
-875 -931 472 0
-875 -932 497 0
-875 -933 522 0
-875 -934 547 0
-875 -935 572 0
-875 -936 597 0
-875 -937 622 0
-875 -938 647 0
-875 -939 672 0
-875 -940 697 0
-875 -941 722 0
-875 -942 747 0
-875 -943 772 0
-875 -944 797 0
-875 -945 822 0
-875 -946 847 0
-875 -947 872 0
-875 -948 897 0
-875 -949 922 0
-875 -950 947 0
-876 -326 348 0
-876 -327 373 0
-876 -328 398 0
-876 -329 423 0
-876 -330 448 0
-876 -331 473 0
-876 -332 498 0
-876 -333 523 0
-876 -334 548 0
-876 -335 573 0
-876 -336 598 0
-876 -337 623 0
-876 -338 648 0
-876 -339 673 0
-876 -340 698 0
-876 -341 723 0
-876 -342 748 0
-876 -343 773 0
-876 -344 798 0
-876 -345 823 0
-876 -346 848 0
-876 -347 873 0
-876 -348 898 0
-876 -349 923 0
-876 -350 948 0
-877 -351 348 0
-877 -352 373 0
-877 -353 398 0
-877 -354 423 0
-877 -355 448 0
-877 -356 473 0
-877 -357 498 0
-877 -358 523 0
-877 -359 548 0
-877 -360 573 0
-877 -361 598 0
-877 -362 623 0
-877 -363 648 0
-877 -364 673 0
-877 -365 698 0
-877 -366 723 0
-877 -367 748 0
-877 -368 773 0
-877 -369 798 0
-877 -370 823 0
-877 -371 848 0
-877 -372 873 0
-877 -373 898 0
-877 -374 923 0
-877 -375 948 0
-878 -376 348 0
-878 -377 373 0
-878 -378 398 0
-878 -379 423 0
-878 -380 448 0
-878 -381 473 0
-878 -382 498 0
-878 -383 523 0
-878 -384 548 0
-878 -385 573 0
-878 -386 598 0
-878 -387 623 0
-878 -388 648 0
-878 -389 673 0
-878 -390 698 0
-878 -391 723 0
-878 -392 748 0
-878 -393 773 0
-878 -394 798 0
-878 -395 823 0
-878 -396 848 0
-878 -397 873 0
-878 -398 898 0
-878 -399 923 0
-878 -400 948 0
-879 -401 348 0
-879 -402 373 0
-879 -403 398 0
-879 -404 423 0
-879 -405 448 0
-879 -406 473 0
-879 -407 498 0
-879 -408 523 0
-879 -409 548 0
-879 -410 573 0
-879 -411 598 0
-879 -412 623 0
-879 -413 648 0
-879 -414 673 0
-879 -415 698 0
-879 -416 723 0
-879 -417 748 0
-879 -418 773 0
-879 -419 798 0
-879 -420 823 0
-879 -421 848 0
-879 -422 873 0
-879 -423 898 0
-879 -424 923 0
-879 -425 948 0
-880 -426 348 0
-880 -427 373 0
-880 -428 398 0
-880 -429 423 0
-880 -430 448 0
-880 -431 473 0
-880 -432 498 0
-880 -433 523 0
-880 -434 548 0
-880 -435 573 0
-880 -436 598 0
-880 -437 623 0
-880 -438 648 0
-880 -439 673 0
-880 -440 698 0
-880 -441 723 0
-880 -442 748 0
-880 -443 773 0
-880 -444 798 0
-880 -445 823 0
-880 -446 848 0
-880 -447 873 0
-880 -448 898 0
-880 -449 923 0
-880 -450 948 0
-881 -451 348 0
-881 -452 373 0
-881 -453 398 0
-881 -454 423 0
-881 -455 448 0
-881 -456 473 0
-881 -457 498 0
-881 -458 523 0
-881 -459 548 0
-881 -460 573 0
-881 -461 598 0
-881 -462 623 0
-881 -463 648 0
-881 -464 673 0
-881 -465 698 0
-881 -466 723 0
-881 -467 748 0
-881 -468 773 0
-881 -469 798 0
-881 -470 823 0
-881 -471 848 0
-881 -472 873 0
-881 -473 898 0
-881 -474 923 0
-881 -475 948 0
-882 -476 348 0
-882 -477 373 0
-882 -478 398 0
-882 -479 423 0
-882 -480 448 0
-882 -481 473 0
-882 -482 498 0
-882 -483 523 0
-882 -484 548 0
-882 -485 573 0
-882 -486 598 0
-882 -487 623 0
-882 -488 648 0
-882 -489 673 0
-882 -490 698 0
-882 -491 723 0
-882 -492 748 0
-882 -493 773 0
-882 -494 798 0
-882 -495 823 0
-882 -496 848 0
-882 -497 873 0
-882 -498 898 0
-882 -499 923 0
-882 -500 948 0
-883 -501 348 0
-883 -502 373 0
-883 -503 398 0
-883 -504 423 0
-883 -505 448 0
-883 -506 473 0
-883 -507 498 0
-883 -508 523 0
-883 -509 548 0
-883 -510 573 0
-883 -511 598 0
-883 -512 623 0
-883 -513 648 0
-883 -514 673 0
-883 -515 698 0
-883 -516 723 0
-883 -517 748 0
-883 -518 773 0
-883 -519 798 0
-883 -520 823 0
-883 -521 848 0
-883 -522 873 0
-883 -523 898 0
-883 -524 923 0
-883 -525 948 0
-884 -526 348 0
-884 -527 373 0
-884 -528 398 0
-884 -529 423 0
-884 -530 448 0
-884 -531 473 0
-884 -532 498 0
-884 -533 523 0
-884 -534 548 0
-884 -535 573 0
-884 -536 598 0
-884 -537 623 0
-884 -538 648 0
-884 -539 673 0
-884 -540 698 0
-884 -541 723 0
-884 -542 748 0
-884 -543 773 0
-884 -544 798 0
-884 -545 823 0
-884 -546 848 0
-884 -547 873 0
-884 -548 898 0
-884 -549 923 0
-884 -550 948 0
-885 -551 348 0
-885 -552 373 0
-885 -553 398 0
-885 -554 423 0
-885 -555 448 0
-885 -556 473 0
-885 -557 498 0
-885 -558 523 0
-885 -559 548 0
-885 -560 573 0
-885 -561 598 0
-885 -562 623 0
-885 -563 648 0
-885 -564 673 0
-885 -565 698 0
-885 -566 723 0
-885 -567 748 0
-885 -568 773 0
-885 -569 798 0
-885 -570 823 0
-885 -571 848 0
-885 -572 873 0
-885 -573 898 0
-885 -574 923 0
-885 -575 948 0
-886 -576 348 0
-886 -577 373 0
-886 -578 398 0
-886 -579 423 0
-886 -580 448 0
-886 -581 473 0
-886 -582 498 0
-886 -583 523 0
-886 -584 548 0
-886 -585 573 0
-886 -586 598 0
-886 -587 623 0
-886 -588 648 0
-886 -589 673 0
-886 -590 698 0
-886 -591 723 0
-886 -592 748 0
-886 -593 773 0
-886 -594 798 0
-886 -595 823 0
-886 -596 848 0
-886 -597 873 0
-886 -598 898 0
-886 -599 923 0
-886 -600 948 0
-887 -601 348 0
-887 -602 373 0
-887 -603 398 0
-887 -604 423 0
-887 -605 448 0
-887 -606 473 0
-887 -607 498 0
-887 -608 523 0
-887 -609 548 0
-887 -610 573 0
-887 -611 598 0
-887 -612 623 0
-887 -613 648 0
-887 -614 673 0
-887 -615 698 0
-887 -616 723 0
-887 -617 748 0
-887 -618 773 0
-887 -619 798 0
-887 -620 823 0
-887 -621 848 0
-887 -622 873 0
-887 -623 898 0
-887 -624 923 0
-887 -625 948 0
-888 -626 348 0
-888 -627 373 0
-888 -628 398 0
-888 -629 423 0
-888 -630 448 0
-888 -631 473 0
-888 -632 498 0
-888 -633 523 0
-888 -634 548 0
-888 -635 573 0
-888 -636 598 0
-888 -637 623 0
-888 -638 648 0
-888 -639 673 0
-888 -640 698 0
-888 -641 723 0
-888 -642 748 0
-888 -643 773 0
-888 -644 798 0
-888 -645 823 0
-888 -646 848 0
-888 -647 873 0
-888 -648 898 0
-888 -649 923 0
-888 -650 948 0
-889 -651 348 0
-889 -652 373 0
-889 -653 398 0
-889 -654 423 0
-889 -655 448 0
-889 -656 473 0
-889 -657 498 0
-889 -658 523 0
-889 -659 548 0
-889 -660 573 0
-889 -661 598 0
-889 -662 623 0
-889 -663 648 0
-889 -664 673 0
-889 -665 698 0
-889 -666 723 0
-889 -667 748 0
-889 -668 773 0
-889 -669 798 0
-889 -670 823 0
-889 -671 848 0
-889 -672 873 0
-889 -673 898 0
-889 -674 923 0
-889 -675 948 0
-890 -676 348 0
-890 -677 373 0
-890 -678 398 0
-890 -679 423 0
-890 -680 448 0
-890 -681 473 0
-890 -682 498 0
-890 -683 523 0
-890 -684 548 0
-890 -685 573 0
-890 -686 598 0
-890 -687 623 0
-890 -688 648 0
-890 -689 673 0
-890 -690 698 0
-890 -691 723 0
-890 -692 748 0
-890 -693 773 0
-890 -694 798 0
-890 -695 823 0
-890 -696 848 0
-890 -697 873 0
-890 -698 898 0
-890 -699 923 0
-890 -700 948 0
-891 -701 348 0
-891 -702 373 0
-891 -703 398 0
-891 -704 423 0
-891 -705 448 0
-891 -706 473 0
-891 -707 498 0
-891 -708 523 0
-891 -709 548 0
-891 -710 573 0
-891 -711 598 0
-891 -712 623 0
-891 -713 648 0
-891 -714 673 0
-891 -715 698 0
-891 -716 723 0
-891 -717 748 0
-891 -718 773 0
-891 -719 798 0
-891 -720 823 0
-891 -721 848 0
-891 -722 873 0
-891 -723 898 0
-891 -724 923 0
-891 -725 948 0
-892 -726 348 0
-892 -727 373 0
-892 -728 398 0
-892 -729 423 0
-892 -730 448 0
-892 -731 473 0
-892 -732 498 0
-892 -733 523 0
-892 -734 548 0
-892 -735 573 0
-892 -736 598 0
-892 -737 623 0
-892 -738 648 0
-892 -739 673 0
-892 -740 698 0
-892 -741 723 0
-892 -742 748 0
-892 -743 773 0
-892 -744 798 0
-892 -745 823 0
-892 -746 848 0
-892 -747 873 0
-892 -748 898 0
-892 -749 923 0
-892 -750 948 0
-893 -751 348 0
-893 -752 373 0
-893 -753 398 0
-893 -754 423 0
-893 -755 448 0
-893 -756 473 0
-893 -757 498 0
-893 -758 523 0
-893 -759 548 0
-893 -760 573 0
-893 -761 598 0
-893 -762 623 0
-893 -763 648 0
-893 -764 673 0
-893 -765 698 0
-893 -766 723 0
-893 -767 748 0
-893 -768 773 0
-893 -769 798 0
-893 -770 823 0
-893 -771 848 0
-893 -772 873 0
-893 -773 898 0
-893 -774 923 0
-893 -775 948 0
-894 -776 348 0
-894 -777 373 0
-894 -778 398 0
-894 -779 423 0
-894 -780 448 0
-894 -781 473 0
-894 -782 498 0
-894 -783 523 0
-894 -784 548 0
-894 -785 573 0
-894 -786 598 0
-894 -787 623 0
-894 -788 648 0
-894 -789 673 0
-894 -790 698 0
-894 -791 723 0
-894 -792 748 0
-894 -793 773 0
-894 -794 798 0
-894 -795 823 0
-894 -796 848 0
-894 -797 873 0
-894 -798 898 0
-894 -799 923 0
-894 -800 948 0
-895 -801 348 0
-895 -802 373 0
-895 -803 398 0
-895 -804 423 0
-895 -805 448 0
-895 -806 473 0
-895 -807 498 0
-895 -808 523 0
-895 -809 548 0
-895 -810 573 0
-895 -811 598 0
-895 -812 623 0
-895 -813 648 0
-895 -814 673 0
-895 -815 698 0
-895 -816 723 0
-895 -817 748 0
-895 -818 773 0
-895 -819 798 0
-895 -820 823 0
-895 -821 848 0
-895 -822 873 0
-895 -823 898 0
-895 -824 923 0
-895 -825 948 0
-896 -826 348 0
-896 -827 373 0
-896 -828 398 0
-896 -829 423 0
-896 -830 448 0
-896 -831 473 0
-896 -832 498 0
-896 -833 523 0
-896 -834 548 0
-896 -835 573 0
-896 -836 598 0
-896 -837 623 0
-896 -838 648 0
-896 -839 673 0
-896 -840 698 0
-896 -841 723 0
-896 -842 748 0
-896 -843 773 0
-896 -844 798 0
-896 -845 823 0
-896 -846 848 0
-896 -847 873 0
-896 -848 898 0
-896 -849 923 0
-896 -850 948 0
-897 -851 348 0
-897 -852 373 0
-897 -853 398 0
-897 -854 423 0
-897 -855 448 0
-897 -856 473 0
-897 -857 498 0
-897 -858 523 0
-897 -859 548 0
-897 -860 573 0
-897 -861 598 0
-897 -862 623 0
-897 -863 648 0
-897 -864 673 0
-897 -865 698 0
-897 -866 723 0
-897 -867 748 0
-897 -868 773 0
-897 -869 798 0
-897 -870 823 0
-897 -871 848 0
-897 -872 873 0
-897 -873 898 0
-897 -874 923 0
-897 -875 948 0
-898 -876 348 0
-898 -877 373 0
-898 -878 398 0
-898 -879 423 0
-898 -880 448 0
-898 -881 473 0
-898 -882 498 0
-898 -883 523 0
-898 -884 548 0
-898 -885 573 0
-898 -886 598 0
-898 -887 623 0
-898 -888 648 0
-898 -889 673 0
-898 -890 698 0
-898 -891 723 0
-898 -892 748 0
-898 -893 773 0
-898 -894 798 0
-898 -895 823 0
-898 -896 848 0
-898 -897 873 0
-898 -898 898 0
-898 -899 923 0
-898 -900 948 0
-899 -901 348 0
-899 -902 373 0
-899 -903 398 0
-899 -904 423 0
-899 -905 448 0
-899 -906 473 0
-899 -907 498 0
-899 -908 523 0
-899 -909 548 0
-899 -910 573 0
-899 -911 598 0
-899 -912 623 0
-899 -913 648 0
-899 -914 673 0
-899 -915 698 0
-899 -916 723 0
-899 -917 748 0
-899 -918 773 0
-899 -919 798 0
-899 -920 823 0
-899 -921 848 0
-899 -922 873 0
-899 -923 898 0
-899 -924 923 0
-899 -925 948 0
-900 -926 348 0
-900 -927 373 0
-900 -928 398 0
-900 -929 423 0
-900 -930 448 0
-900 -931 473 0
-900 -932 498 0
-900 -933 523 0
-900 -934 548 0
-900 -935 573 0
-900 -936 598 0
-900 -937 623 0
-900 -938 648 0
-900 -939 673 0
-900 -940 698 0
-900 -941 723 0
-900 -942 748 0
-900 -943 773 0
-900 -944 798 0
-900 -945 823 0
-900 -946 848 0
-900 -947 873 0
-900 -948 898 0
-900 -949 923 0
-900 -950 948 0
-901 -326 349 0
-901 -327 374 0
-901 -328 399 0
-901 -329 424 0
-901 -330 449 0
-901 -331 474 0
-901 -332 499 0
-901 -333 524 0
-901 -334 549 0
-901 -335 574 0
-901 -336 599 0
-901 -337 624 0
-901 -338 649 0
-901 -339 674 0
-901 -340 699 0
-901 -341 724 0
-901 -342 749 0
-901 -343 774 0
-901 -344 799 0
-901 -345 824 0
-901 -346 849 0
-901 -347 874 0
-901 -348 899 0
-901 -349 924 0
-901 -350 949 0
-902 -351 349 0
-902 -352 374 0
-902 -353 399 0
-902 -354 424 0
-902 -355 449 0
-902 -356 474 0
-902 -357 499 0
-902 -358 524 0
-902 -359 549 0
-902 -360 574 0
-902 -361 599 0
-902 -362 624 0
-902 -363 649 0
-902 -364 674 0
-902 -365 699 0
-902 -366 724 0
-902 -367 749 0
-902 -368 774 0
-902 -369 799 0
-902 -370 824 0
-902 -371 849 0
-902 -372 874 0
-902 -373 899 0
-902 -374 924 0
-902 -375 949 0
-903 -376 349 0
-903 -377 374 0
-903 -378 399 0
-903 -379 424 0
-903 -380 449 0
-903 -381 474 0
-903 -382 499 0
-903 -383 524 0
-903 -384 549 0
-903 -385 574 0
-903 -386 599 0
-903 -387 624 0
-903 -388 649 0
-903 -389 674 0
-903 -390 699 0
-903 -391 724 0
-903 -392 749 0
-903 -393 774 0
-903 -394 799 0
-903 -395 824 0
-903 -396 849 0
-903 -397 874 0
-903 -398 899 0
-903 -399 924 0
-903 -400 949 0
-904 -401 349 0
-904 -402 374 0
-904 -403 399 0
-904 -404 424 0
-904 -405 449 0
-904 -406 474 0
-904 -407 499 0
-904 -408 524 0
-904 -409 549 0
-904 -410 574 0
-904 -411 599 0
-904 -412 624 0
-904 -413 649 0
-904 -414 674 0
-904 -415 699 0
-904 -416 724 0
-904 -417 749 0
-904 -418 774 0
-904 -419 799 0
-904 -420 824 0
-904 -421 849 0
-904 -422 874 0
-904 -423 899 0
-904 -424 924 0
-904 -425 949 0
-905 -426 349 0
-905 -427 374 0
-905 -428 399 0
-905 -429 424 0
-905 -430 449 0
-905 -431 474 0
-905 -432 499 0
-905 -433 524 0
-905 -434 549 0
-905 -435 574 0
-905 -436 599 0
-905 -437 624 0
-905 -438 649 0
-905 -439 674 0
-905 -440 699 0
-905 -441 724 0
-905 -442 749 0
-905 -443 774 0
-905 -444 799 0
-905 -445 824 0
-905 -446 849 0
-905 -447 874 0
-905 -448 899 0
-905 -449 924 0
-905 -450 949 0
-906 -451 349 0
-906 -452 374 0
-906 -453 399 0
-906 -454 424 0
-906 -455 449 0
-906 -456 474 0
-906 -457 499 0
-906 -458 524 0
-906 -459 549 0
-906 -460 574 0
-906 -461 599 0
-906 -462 624 0
-906 -463 649 0
-906 -464 674 0
-906 -465 699 0
-906 -466 724 0
-906 -467 749 0
-906 -468 774 0
-906 -469 799 0
-906 -470 824 0
-906 -471 849 0
-906 -472 874 0
-906 -473 899 0
-906 -474 924 0
-906 -475 949 0
-907 -476 349 0
-907 -477 374 0
-907 -478 399 0
-907 -479 424 0
-907 -480 449 0
-907 -481 474 0
-907 -482 499 0
-907 -483 524 0
-907 -484 549 0
-907 -485 574 0
-907 -486 599 0
-907 -487 624 0
-907 -488 649 0
-907 -489 674 0
-907 -490 699 0
-907 -491 724 0
-907 -492 749 0
-907 -493 774 0
-907 -494 799 0
-907 -495 824 0
-907 -496 849 0
-907 -497 874 0
-907 -498 899 0
-907 -499 924 0
-907 -500 949 0
-908 -501 349 0
-908 -502 374 0
-908 -503 399 0
-908 -504 424 0
-908 -505 449 0
-908 -506 474 0
-908 -507 499 0
-908 -508 524 0
-908 -509 549 0
-908 -510 574 0
-908 -511 599 0
-908 -512 624 0
-908 -513 649 0
-908 -514 674 0
-908 -515 699 0
-908 -516 724 0
-908 -517 749 0
-908 -518 774 0
-908 -519 799 0
-908 -520 824 0
-908 -521 849 0
-908 -522 874 0
-908 -523 899 0
-908 -524 924 0
-908 -525 949 0
-909 -526 349 0
-909 -527 374 0
-909 -528 399 0
-909 -529 424 0
-909 -530 449 0
-909 -531 474 0
-909 -532 499 0
-909 -533 524 0
-909 -534 549 0
-909 -535 574 0
-909 -536 599 0
-909 -537 624 0
-909 -538 649 0
-909 -539 674 0
-909 -540 699 0
-909 -541 724 0
-909 -542 749 0
-909 -543 774 0
-909 -544 799 0
-909 -545 824 0
-909 -546 849 0
-909 -547 874 0
-909 -548 899 0
-909 -549 924 0
-909 -550 949 0
-910 -551 349 0
-910 -552 374 0
-910 -553 399 0
-910 -554 424 0
-910 -555 449 0
-910 -556 474 0
-910 -557 499 0
-910 -558 524 0
-910 -559 549 0
-910 -560 574 0
-910 -561 599 0
-910 -562 624 0
-910 -563 649 0
-910 -564 674 0
-910 -565 699 0
-910 -566 724 0
-910 -567 749 0
-910 -568 774 0
-910 -569 799 0
-910 -570 824 0
-910 -571 849 0
-910 -572 874 0
-910 -573 899 0
-910 -574 924 0
-910 -575 949 0
-911 -576 349 0
-911 -577 374 0
-911 -578 399 0
-911 -579 424 0
-911 -580 449 0
-911 -581 474 0
-911 -582 499 0
-911 -583 524 0
-911 -584 549 0
-911 -585 574 0
-911 -586 599 0
-911 -587 624 0
-911 -588 649 0
-911 -589 674 0
-911 -590 699 0
-911 -591 724 0
-911 -592 749 0
-911 -593 774 0
-911 -594 799 0
-911 -595 824 0
-911 -596 849 0
-911 -597 874 0
-911 -598 899 0
-911 -599 924 0
-911 -600 949 0
-912 -601 349 0
-912 -602 374 0
-912 -603 399 0
-912 -604 424 0
-912 -605 449 0
-912 -606 474 0
-912 -607 499 0
-912 -608 524 0
-912 -609 549 0
-912 -610 574 0
-912 -611 599 0
-912 -612 624 0
-912 -613 649 0
-912 -614 674 0
-912 -615 699 0
-912 -616 724 0
-912 -617 749 0
-912 -618 774 0
-912 -619 799 0
-912 -620 824 0
-912 -621 849 0
-912 -622 874 0
-912 -623 899 0
-912 -624 924 0
-912 -625 949 0
-913 -626 349 0
-913 -627 374 0
-913 -628 399 0
-913 -629 424 0
-913 -630 449 0
-913 -631 474 0
-913 -632 499 0
-913 -633 524 0
-913 -634 549 0
-913 -635 574 0
-913 -636 599 0
-913 -637 624 0
-913 -638 649 0
-913 -639 674 0
-913 -640 699 0
-913 -641 724 0
-913 -642 749 0
-913 -643 774 0
-913 -644 799 0
-913 -645 824 0
-913 -646 849 0
-913 -647 874 0
-913 -648 899 0
-913 -649 924 0
-913 -650 949 0
-914 -651 349 0
-914 -652 374 0
-914 -653 399 0
-914 -654 424 0
-914 -655 449 0
-914 -656 474 0
-914 -657 499 0
-914 -658 524 0
-914 -659 549 0
-914 -660 574 0
-914 -661 599 0
-914 -662 624 0
-914 -663 649 0
-914 -664 674 0
-914 -665 699 0
-914 -666 724 0
-914 -667 749 0
-914 -668 774 0
-914 -669 799 0
-914 -670 824 0
-914 -671 849 0
-914 -672 874 0
-914 -673 899 0
-914 -674 924 0
-914 -675 949 0
-915 -676 349 0
-915 -677 374 0
-915 -678 399 0
-915 -679 424 0
-915 -680 449 0
-915 -681 474 0
-915 -682 499 0
-915 -683 524 0
-915 -684 549 0
-915 -685 574 0
-915 -686 599 0
-915 -687 624 0
-915 -688 649 0
-915 -689 674 0
-915 -690 699 0
-915 -691 724 0
-915 -692 749 0
-915 -693 774 0
-915 -694 799 0
-915 -695 824 0
-915 -696 849 0
-915 -697 874 0
-915 -698 899 0
-915 -699 924 0
-915 -700 949 0
-916 -701 349 0
-916 -702 374 0
-916 -703 399 0
-916 -704 424 0
-916 -705 449 0
-916 -706 474 0
-916 -707 499 0
-916 -708 524 0
-916 -709 549 0
-916 -710 574 0
-916 -711 599 0
-916 -712 624 0
-916 -713 649 0
-916 -714 674 0
-916 -715 699 0
-916 -716 724 0
-916 -717 749 0
-916 -718 774 0
-916 -719 799 0
-916 -720 824 0
-916 -721 849 0
-916 -722 874 0
-916 -723 899 0
-916 -724 924 0
-916 -725 949 0
-917 -726 349 0
-917 -727 374 0
-917 -728 399 0
-917 -729 424 0
-917 -730 449 0
-917 -731 474 0
-917 -732 499 0
-917 -733 524 0
-917 -734 549 0
-917 -735 574 0
-917 -736 599 0
-917 -737 624 0
-917 -738 649 0
-917 -739 674 0
-917 -740 699 0
-917 -741 724 0
-917 -742 749 0
-917 -743 774 0
-917 -744 799 0
-917 -745 824 0
-917 -746 849 0
-917 -747 874 0
-917 -748 899 0
-917 -749 924 0
-917 -750 949 0
-918 -751 349 0
-918 -752 374 0
-918 -753 399 0
-918 -754 424 0
-918 -755 449 0
-918 -756 474 0
-918 -757 499 0
-918 -758 524 0
-918 -759 549 0
-918 -760 574 0
-918 -761 599 0
-918 -762 624 0
-918 -763 649 0
-918 -764 674 0
-918 -765 699 0
-918 -766 724 0
-918 -767 749 0
-918 -768 774 0
-918 -769 799 0
-918 -770 824 0
-918 -771 849 0
-918 -772 874 0
-918 -773 899 0
-918 -774 924 0
-918 -775 949 0
-919 -776 349 0
-919 -777 374 0
-919 -778 399 0
-919 -779 424 0
-919 -780 449 0
-919 -781 474 0
-919 -782 499 0
-919 -783 524 0
-919 -784 549 0
-919 -785 574 0
-919 -786 599 0
-919 -787 624 0
-919 -788 649 0
-919 -789 674 0
-919 -790 699 0
-919 -791 724 0
-919 -792 749 0
-919 -793 774 0
-919 -794 799 0
-919 -795 824 0
-919 -796 849 0
-919 -797 874 0
-919 -798 899 0
-919 -799 924 0
-919 -800 949 0
-920 -801 349 0
-920 -802 374 0
-920 -803 399 0
-920 -804 424 0
-920 -805 449 0
-920 -806 474 0
-920 -807 499 0
-920 -808 524 0
-920 -809 549 0
-920 -810 574 0
-920 -811 599 0
-920 -812 624 0
-920 -813 649 0
-920 -814 674 0
-920 -815 699 0
-920 -816 724 0
-920 -817 749 0
-920 -818 774 0
-920 -819 799 0
-920 -820 824 0
-920 -821 849 0
-920 -822 874 0
-920 -823 899 0
-920 -824 924 0
-920 -825 949 0
-921 -826 349 0
-921 -827 374 0
-921 -828 399 0
-921 -829 424 0
-921 -830 449 0
-921 -831 474 0
-921 -832 499 0
-921 -833 524 0
-921 -834 549 0
-921 -835 574 0
-921 -836 599 0
-921 -837 624 0
-921 -838 649 0
-921 -839 674 0
-921 -840 699 0
-921 -841 724 0
-921 -842 749 0
-921 -843 774 0
-921 -844 799 0
-921 -845 824 0
-921 -846 849 0
-921 -847 874 0
-921 -848 899 0
-921 -849 924 0
-921 -850 949 0
-922 -851 349 0
-922 -852 374 0
-922 -853 399 0
-922 -854 424 0
-922 -855 449 0
-922 -856 474 0
-922 -857 499 0
-922 -858 524 0
-922 -859 549 0
-922 -860 574 0
-922 -861 599 0
-922 -862 624 0
-922 -863 649 0
-922 -864 674 0
-922 -865 699 0
-922 -866 724 0
-922 -867 749 0
-922 -868 774 0
-922 -869 799 0
-922 -870 824 0
-922 -871 849 0
-922 -872 874 0
-922 -873 899 0
-922 -874 924 0
-922 -875 949 0
-923 -876 349 0
-923 -877 374 0
-923 -878 399 0
-923 -879 424 0
-923 -880 449 0
-923 -881 474 0
-923 -882 499 0
-923 -883 524 0
-923 -884 549 0
-923 -885 574 0
-923 -886 599 0
-923 -887 624 0
-923 -888 649 0
-923 -889 674 0
-923 -890 699 0
-923 -891 724 0
-923 -892 749 0
-923 -893 774 0
-923 -894 799 0
-923 -895 824 0
-923 -896 849 0
-923 -897 874 0
-923 -898 899 0
-923 -899 924 0
-923 -900 949 0
-924 -901 349 0
-924 -902 374 0
-924 -903 399 0
-924 -904 424 0
-924 -905 449 0
-924 -906 474 0
-924 -907 499 0
-924 -908 524 0
-924 -909 549 0
-924 -910 574 0
-924 -911 599 0
-924 -912 624 0
-924 -913 649 0
-924 -914 674 0
-924 -915 699 0
-924 -916 724 0
-924 -917 749 0
-924 -918 774 0
-924 -919 799 0
-924 -920 824 0
-924 -921 849 0
-924 -922 874 0
-924 -923 899 0
-924 -924 924 0
-924 -925 949 0
-925 -926 349 0
-925 -927 374 0
-925 -928 399 0
-925 -929 424 0
-925 -930 449 0
-925 -931 474 0
-925 -932 499 0
-925 -933 524 0
-925 -934 549 0
-925 -935 574 0
-925 -936 599 0
-925 -937 624 0
-925 -938 649 0
-925 -939 674 0
-925 -940 699 0
-925 -941 724 0
-925 -942 749 0
-925 -943 774 0
-925 -944 799 0
-925 -945 824 0
-925 -946 849 0
-925 -947 874 0
-925 -948 899 0
-925 -949 924 0
-925 -950 949 0
-926 -326 350 0
-926 -327 375 0
-926 -328 400 0
-926 -329 425 0
-926 -330 450 0
-926 -331 475 0
-926 -332 500 0
-926 -333 525 0
-926 -334 550 0
-926 -335 575 0
-926 -336 600 0
-926 -337 625 0
-926 -338 650 0
-926 -339 675 0
-926 -340 700 0
-926 -341 725 0
-926 -342 750 0
-926 -343 775 0
-926 -344 800 0
-926 -345 825 0
-926 -346 850 0
-926 -347 875 0
-926 -348 900 0
-926 -349 925 0
-926 -350 950 0
-927 -351 350 0
-927 -352 375 0
-927 -353 400 0
-927 -354 425 0
-927 -355 450 0
-927 -356 475 0
-927 -357 500 0
-927 -358 525 0
-927 -359 550 0
-927 -360 575 0
-927 -361 600 0
-927 -362 625 0
-927 -363 650 0
-927 -364 675 0
-927 -365 700 0
-927 -366 725 0
-927 -367 750 0
-927 -368 775 0
-927 -369 800 0
-927 -370 825 0
-927 -371 850 0
-927 -372 875 0
-927 -373 900 0
-927 -374 925 0
-927 -375 950 0
-928 -376 350 0
-928 -377 375 0
-928 -378 400 0
-928 -379 425 0
-928 -380 450 0
-928 -381 475 0
-928 -382 500 0
-928 -383 525 0
-928 -384 550 0
-928 -385 575 0
-928 -386 600 0
-928 -387 625 0
-928 -388 650 0
-928 -389 675 0
-928 -390 700 0
-928 -391 725 0
-928 -392 750 0
-928 -393 775 0
-928 -394 800 0
-928 -395 825 0
-928 -396 850 0
-928 -397 875 0
-928 -398 900 0
-928 -399 925 0
-928 -400 950 0
-929 -401 350 0
-929 -402 375 0
-929 -403 400 0
-929 -404 425 0
-929 -405 450 0
-929 -406 475 0
-929 -407 500 0
-929 -408 525 0
-929 -409 550 0
-929 -410 575 0
-929 -411 600 0
-929 -412 625 0
-929 -413 650 0
-929 -414 675 0
-929 -415 700 0
-929 -416 725 0
-929 -417 750 0
-929 -418 775 0
-929 -419 800 0
-929 -420 825 0
-929 -421 850 0
-929 -422 875 0
-929 -423 900 0
-929 -424 925 0
-929 -425 950 0
-930 -426 350 0
-930 -427 375 0
-930 -428 400 0
-930 -429 425 0
-930 -430 450 0
-930 -431 475 0
-930 -432 500 0
-930 -433 525 0
-930 -434 550 0
-930 -435 575 0
-930 -436 600 0
-930 -437 625 0
-930 -438 650 0
-930 -439 675 0
-930 -440 700 0
-930 -441 725 0
-930 -442 750 0
-930 -443 775 0
-930 -444 800 0
-930 -445 825 0
-930 -446 850 0
-930 -447 875 0
-930 -448 900 0
-930 -449 925 0
-930 -450 950 0
-931 -451 350 0
-931 -452 375 0
-931 -453 400 0
-931 -454 425 0
-931 -455 450 0
-931 -456 475 0
-931 -457 500 0
-931 -458 525 0
-931 -459 550 0
-931 -460 575 0
-931 -461 600 0
-931 -462 625 0
-931 -463 650 0
-931 -464 675 0
-931 -465 700 0
-931 -466 725 0
-931 -467 750 0
-931 -468 775 0
-931 -469 800 0
-931 -470 825 0
-931 -471 850 0
-931 -472 875 0
-931 -473 900 0
-931 -474 925 0
-931 -475 950 0
-932 -476 350 0
-932 -477 375 0
-932 -478 400 0
-932 -479 425 0
-932 -480 450 0
-932 -481 475 0
-932 -482 500 0
-932 -483 525 0
-932 -484 550 0
-932 -485 575 0
-932 -486 600 0
-932 -487 625 0
-932 -488 650 0
-932 -489 675 0
-932 -490 700 0
-932 -491 725 0
-932 -492 750 0
-932 -493 775 0
-932 -494 800 0
-932 -495 825 0
-932 -496 850 0
-932 -497 875 0
-932 -498 900 0
-932 -499 925 0
-932 -500 950 0
-933 -501 350 0
-933 -502 375 0
-933 -503 400 0
-933 -504 425 0
-933 -505 450 0
-933 -506 475 0
-933 -507 500 0
-933 -508 525 0
-933 -509 550 0
-933 -510 575 0
-933 -511 600 0
-933 -512 625 0
-933 -513 650 0
-933 -514 675 0
-933 -515 700 0
-933 -516 725 0
-933 -517 750 0
-933 -518 775 0
-933 -519 800 0
-933 -520 825 0
-933 -521 850 0
-933 -522 875 0
-933 -523 900 0
-933 -524 925 0
-933 -525 950 0
-934 -526 350 0
-934 -527 375 0
-934 -528 400 0
-934 -529 425 0
-934 -530 450 0
-934 -531 475 0
-934 -532 500 0
-934 -533 525 0
-934 -534 550 0
-934 -535 575 0
-934 -536 600 0
-934 -537 625 0
-934 -538 650 0
-934 -539 675 0
-934 -540 700 0
-934 -541 725 0
-934 -542 750 0
-934 -543 775 0
-934 -544 800 0
-934 -545 825 0
-934 -546 850 0
-934 -547 875 0
-934 -548 900 0
-934 -549 925 0
-934 -550 950 0
-935 -551 350 0
-935 -552 375 0
-935 -553 400 0
-935 -554 425 0
-935 -555 450 0
-935 -556 475 0
-935 -557 500 0
-935 -558 525 0
-935 -559 550 0
-935 -560 575 0
-935 -561 600 0
-935 -562 625 0
-935 -563 650 0
-935 -564 675 0
-935 -565 700 0
-935 -566 725 0
-935 -567 750 0
-935 -568 775 0
-935 -569 800 0
-935 -570 825 0
-935 -571 850 0
-935 -572 875 0
-935 -573 900 0
-935 -574 925 0
-935 -575 950 0
-936 -576 350 0
-936 -577 375 0
-936 -578 400 0
-936 -579 425 0
-936 -580 450 0
-936 -581 475 0
-936 -582 500 0
-936 -583 525 0
-936 -584 550 0
-936 -585 575 0
-936 -586 600 0
-936 -587 625 0
-936 -588 650 0
-936 -589 675 0
-936 -590 700 0
-936 -591 725 0
-936 -592 750 0
-936 -593 775 0
-936 -594 800 0
-936 -595 825 0
-936 -596 850 0
-936 -597 875 0
-936 -598 900 0
-936 -599 925 0
-936 -600 950 0
-937 -601 350 0
-937 -602 375 0
-937 -603 400 0
-937 -604 425 0
-937 -605 450 0
-937 -606 475 0
-937 -607 500 0
-937 -608 525 0
-937 -609 550 0
-937 -610 575 0
-937 -611 600 0
-937 -612 625 0
-937 -613 650 0
-937 -614 675 0
-937 -615 700 0
-937 -616 725 0
-937 -617 750 0
-937 -618 775 0
-937 -619 800 0
-937 -620 825 0
-937 -621 850 0
-937 -622 875 0
-937 -623 900 0
-937 -624 925 0
-937 -625 950 0
-938 -626 350 0
-938 -627 375 0
-938 -628 400 0
-938 -629 425 0
-938 -630 450 0
-938 -631 475 0
-938 -632 500 0
-938 -633 525 0
-938 -634 550 0
-938 -635 575 0
-938 -636 600 0
-938 -637 625 0
-938 -638 650 0
-938 -639 675 0
-938 -640 700 0
-938 -641 725 0
-938 -642 750 0
-938 -643 775 0
-938 -644 800 0
-938 -645 825 0
-938 -646 850 0
-938 -647 875 0
-938 -648 900 0
-938 -649 925 0
-938 -650 950 0
-939 -651 350 0
-939 -652 375 0
-939 -653 400 0
-939 -654 425 0
-939 -655 450 0
-939 -656 475 0
-939 -657 500 0
-939 -658 525 0
-939 -659 550 0
-939 -660 575 0
-939 -661 600 0
-939 -662 625 0
-939 -663 650 0
-939 -664 675 0
-939 -665 700 0
-939 -666 725 0
-939 -667 750 0
-939 -668 775 0
-939 -669 800 0
-939 -670 825 0
-939 -671 850 0
-939 -672 875 0
-939 -673 900 0
-939 -674 925 0
-939 -675 950 0
-940 -676 350 0
-940 -677 375 0
-940 -678 400 0
-940 -679 425 0
-940 -680 450 0
-940 -681 475 0
-940 -682 500 0
-940 -683 525 0
-940 -684 550 0
-940 -685 575 0
-940 -686 600 0
-940 -687 625 0
-940 -688 650 0
-940 -689 675 0
-940 -690 700 0
-940 -691 725 0
-940 -692 750 0
-940 -693 775 0
-940 -694 800 0
-940 -695 825 0
-940 -696 850 0
-940 -697 875 0
-940 -698 900 0
-940 -699 925 0
-940 -700 950 0
-941 -701 350 0
-941 -702 375 0
-941 -703 400 0
-941 -704 425 0
-941 -705 450 0
-941 -706 475 0
-941 -707 500 0
-941 -708 525 0
-941 -709 550 0
-941 -710 575 0
-941 -711 600 0
-941 -712 625 0
-941 -713 650 0
-941 -714 675 0
-941 -715 700 0
-941 -716 725 0
-941 -717 750 0
-941 -718 775 0
-941 -719 800 0
-941 -720 825 0
-941 -721 850 0
-941 -722 875 0
-941 -723 900 0
-941 -724 925 0
-941 -725 950 0
-942 -726 350 0
-942 -727 375 0
-942 -728 400 0
-942 -729 425 0
-942 -730 450 0
-942 -731 475 0
-942 -732 500 0
-942 -733 525 0
-942 -734 550 0
-942 -735 575 0
-942 -736 600 0
-942 -737 625 0
-942 -738 650 0
-942 -739 675 0
-942 -740 700 0
-942 -741 725 0
-942 -742 750 0
-942 -743 775 0
-942 -744 800 0
-942 -745 825 0
-942 -746 850 0
-942 -747 875 0
-942 -748 900 0
-942 -749 925 0
-942 -750 950 0
-943 -751 350 0
-943 -752 375 0
-943 -753 400 0
-943 -754 425 0
-943 -755 450 0
-943 -756 475 0
-943 -757 500 0
-943 -758 525 0
-943 -759 550 0
-943 -760 575 0
-943 -761 600 0
-943 -762 625 0
-943 -763 650 0
-943 -764 675 0
-943 -765 700 0
-943 -766 725 0
-943 -767 750 0
-943 -768 775 0
-943 -769 800 0
-943 -770 825 0
-943 -771 850 0
-943 -772 875 0
-943 -773 900 0
-943 -774 925 0
-943 -775 950 0
-944 -776 350 0
-944 -777 375 0
-944 -778 400 0
-944 -779 425 0
-944 -780 450 0
-944 -781 475 0
-944 -782 500 0
-944 -783 525 0
-944 -784 550 0
-944 -785 575 0
-944 -786 600 0
-944 -787 625 0
-944 -788 650 0
-944 -789 675 0
-944 -790 700 0
-944 -791 725 0
-944 -792 750 0
-944 -793 775 0
-944 -794 800 0
-944 -795 825 0
-944 -796 850 0
-944 -797 875 0
-944 -798 900 0
-944 -799 925 0
-944 -800 950 0
-945 -801 350 0
-945 -802 375 0
-945 -803 400 0
-945 -804 425 0
-945 -805 450 0
-945 -806 475 0
-945 -807 500 0
-945 -808 525 0
-945 -809 550 0
-945 -810 575 0
-945 -811 600 0
-945 -812 625 0
-945 -813 650 0
-945 -814 675 0
-945 -815 700 0
-945 -816 725 0
-945 -817 750 0
-945 -818 775 0
-945 -819 800 0
-945 -820 825 0
-945 -821 850 0
-945 -822 875 0
-945 -823 900 0
-945 -824 925 0
-945 -825 950 0
-946 -826 350 0
-946 -827 375 0
-946 -828 400 0
-946 -829 425 0
-946 -830 450 0
-946 -831 475 0
-946 -832 500 0
-946 -833 525 0
-946 -834 550 0
-946 -835 575 0
-946 -836 600 0
-946 -837 625 0
-946 -838 650 0
-946 -839 675 0
-946 -840 700 0
-946 -841 725 0
-946 -842 750 0
-946 -843 775 0
-946 -844 800 0
-946 -845 825 0
-946 -846 850 0
-946 -847 875 0
-946 -848 900 0
-946 -849 925 0
-946 -850 950 0
-947 -851 350 0
-947 -852 375 0
-947 -853 400 0
-947 -854 425 0
-947 -855 450 0
-947 -856 475 0
-947 -857 500 0
-947 -858 525 0
-947 -859 550 0
-947 -860 575 0
-947 -861 600 0
-947 -862 625 0
-947 -863 650 0
-947 -864 675 0
-947 -865 700 0
-947 -866 725 0
-947 -867 750 0
-947 -868 775 0
-947 -869 800 0
-947 -870 825 0
-947 -871 850 0
-947 -872 875 0
-947 -873 900 0
-947 -874 925 0
-947 -875 950 0
-948 -876 350 0
-948 -877 375 0
-948 -878 400 0
-948 -879 425 0
-948 -880 450 0
-948 -881 475 0
-948 -882 500 0
-948 -883 525 0
-948 -884 550 0
-948 -885 575 0
-948 -886 600 0
-948 -887 625 0
-948 -888 650 0
-948 -889 675 0
-948 -890 700 0
-948 -891 725 0
-948 -892 750 0
-948 -893 775 0
-948 -894 800 0
-948 -895 825 0
-948 -896 850 0
-948 -897 875 0
-948 -898 900 0
-948 -899 925 0
-948 -900 950 0
-949 -901 350 0
-949 -902 375 0
-949 -903 400 0
-949 -904 425 0
-949 -905 450 0
-949 -906 475 0
-949 -907 500 0
-949 -908 525 0
-949 -909 550 0
-949 -910 575 0
-949 -911 600 0
-949 -912 625 0
-949 -913 650 0
-949 -914 675 0
-949 -915 700 0
-949 -916 725 0
-949 -917 750 0
-949 -918 775 0
-949 -919 800 0
-949 -920 825 0
-949 -921 850 0
-949 -922 875 0
-949 -923 900 0
-949 -924 925 0
-949 -925 950 0
-950 -926 350 0
-950 -927 375 0
-950 -928 400 0
-950 -929 425 0
-950 -930 450 0
-950 -931 475 0
-950 -932 500 0
-950 -933 525 0
-950 -934 550 0
-950 -935 575 0
-950 -936 600 0
-950 -937 625 0
-950 -938 650 0
-950 -939 675 0
-950 -940 700 0
-950 -941 725 0
-950 -942 750 0
-950 -943 775 0
-950 -944 800 0
-950 -945 825 0
-950 -946 850 0
-950 -947 875 0
-950 -948 900 0
-950 -949 925 0
-950 -950 950 0
326 352 378 404 430 456 482 508 534 560 586 612 638 664 690 716 742 768 794 820 846 872 898 924 950 0
-326 -352 0
-326 -378 0
-326 -404 0
-326 -430 0
-326 -456 0
-326 -482 0
-326 -508 0
-326 -534 0
-326 -560 0
-326 -586 0
-326 -612 0
-326 -638 0
-326 -664 0
-326 -690 0
-326 -716 0
-326 -742 0
-326 -768 0
-326 -794 0
-326 -820 0
-326 -846 0
-326 -872 0
-326 -898 0
-326 -924 0
-326 -950 0
-352 -378 0
-352 -404 0
-352 -430 0
-352 -456 0
-352 -482 0
-352 -508 0
-352 -534 0
-352 -560 0
-352 -586 0
-352 -612 0
-352 -638 0
-352 -664 0
-352 -690 0
-352 -716 0
-352 -742 0
-352 -768 0
-352 -794 0
-352 -820 0
-352 -846 0
-352 -872 0
-352 -898 0
-352 -924 0
-352 -950 0
-378 -404 0
-378 -430 0
-378 -456 0
-378 -482 0
-378 -508 0
-378 -534 0
-378 -560 0
-378 -586 0
-378 -612 0
-378 -638 0
-378 -664 0
-378 -690 0
-378 -716 0
-378 -742 0
-378 -768 0
-378 -794 0
-378 -820 0
-378 -846 0
-378 -872 0
-378 -898 0
-378 -924 0
-378 -950 0
-404 -430 0
-404 -456 0
-404 -482 0
-404 -508 0
-404 -534 0
-404 -560 0
-404 -586 0
-404 -612 0
-404 -638 0
-404 -664 0
-404 -690 0
-404 -716 0
-404 -742 0
-404 -768 0
-404 -794 0
-404 -820 0
-404 -846 0
-404 -872 0
-404 -898 0
-404 -924 0
-404 -950 0
-430 -456 0
-430 -482 0
-430 -508 0
-430 -534 0
-430 -560 0
-430 -586 0
-430 -612 0
-430 -638 0
-430 -664 0
-430 -690 0
-430 -716 0
-430 -742 0
-430 -768 0
-430 -794 0
-430 -820 0
-430 -846 0
-430 -872 0
-430 -898 0
-430 -924 0
-430 -950 0
-456 -482 0
-456 -508 0
-456 -534 0
-456 -560 0
-456 -586 0
-456 -612 0
-456 -638 0
-456 -664 0
-456 -690 0
-456 -716 0
-456 -742 0
-456 -768 0
-456 -794 0
-456 -820 0
-456 -846 0
-456 -872 0
-456 -898 0
-456 -924 0
-456 -950 0
-482 -508 0
-482 -534 0
-482 -560 0
-482 -586 0
-482 -612 0
-482 -638 0
-482 -664 0
-482 -690 0
-482 -716 0
-482 -742 0
-482 -768 0
-482 -794 0
-482 -820 0
-482 -846 0
-482 -872 0
-482 -898 0
-482 -924 0
-482 -950 0
-508 -534 0
-508 -560 0
-508 -586 0
-508 -612 0
-508 -638 0
-508 -664 0
-508 -690 0
-508 -716 0
-508 -742 0
-508 -768 0
-508 -794 0
-508 -820 0
-508 -846 0
-508 -872 0
-508 -898 0
-508 -924 0
-508 -950 0
-534 -560 0
-534 -586 0
-534 -612 0
-534 -638 0
-534 -664 0
-534 -690 0
-534 -716 0
-534 -742 0
-534 -768 0
-534 -794 0
-534 -820 0
-534 -846 0
-534 -872 0
-534 -898 0
-534 -924 0
-534 -950 0
-560 -586 0
-560 -612 0
-560 -638 0
-560 -664 0
-560 -690 0
-560 -716 0
-560 -742 0
-560 -768 0
-560 -794 0
-560 -820 0
-560 -846 0
-560 -872 0
-560 -898 0
-560 -924 0
-560 -950 0
-586 -612 0
-586 -638 0
-586 -664 0
-586 -690 0
-586 -716 0
-586 -742 0
-586 -768 0
-586 -794 0
-586 -820 0
-586 -846 0
-586 -872 0
-586 -898 0
-586 -924 0
-586 -950 0
-612 -638 0
-612 -664 0
-612 -690 0
-612 -716 0
-612 -742 0
-612 -768 0
-612 -794 0
-612 -820 0
-612 -846 0
-612 -872 0
-612 -898 0
-612 -924 0
-612 -950 0
-638 -664 0
-638 -690 0
-638 -716 0
-638 -742 0
-638 -768 0
-638 -794 0
-638 -820 0
-638 -846 0
-638 -872 0
-638 -898 0
-638 -924 0
-638 -950 0
-664 -690 0
-664 -716 0
-664 -742 0
-664 -768 0
-664 -794 0
-664 -820 0
-664 -846 0
-664 -872 0
-664 -898 0
-664 -924 0
-664 -950 0
-690 -716 0
-690 -742 0
-690 -768 0
-690 -794 0
-690 -820 0
-690 -846 0
-690 -872 0
-690 -898 0
-690 -924 0
-690 -950 0
-716 -742 0
-716 -768 0
-716 -794 0
-716 -820 0
-716 -846 0
-716 -872 0
-716 -898 0
-716 -924 0
-716 -950 0
-742 -768 0
-742 -794 0
-742 -820 0
-742 -846 0
-742 -872 0
-742 -898 0
-742 -924 0
-742 -950 0
-768 -794 0
-768 -820 0
-768 -846 0
-768 -872 0
-768 -898 0
-768 -924 0
-768 -950 0
-794 -820 0
-794 -846 0
-794 -872 0
-794 -898 0
-794 -924 0
-794 -950 0
-820 -846 0
-820 -872 0
-820 -898 0
-820 -924 0
-820 -950 0
-846 -872 0
-846 -898 0
-846 -924 0
-846 -950 0
-872 -898 0
-872 -924 0
-872 -950 0
-898 -924 0
-898 -950 0
-924 -950 0
